K-Points along high symmetry lines
20
Line-mode
rec
    0.000 0.500 0.000
    0.000 0.000 0.000

    0.000 0.000 0.000
    0.500 0.000 0.000

    0.500 0.000 0.000
    0.500 0.000 0.500

    0.500 0.000 0.500
    0.000 0.000 0.500

    0.000 0.000 0.500
    0.000 0.500 0.500

    0.000 0.500 0.500
    0.500 0.500 0.500

    0.500 0.500 0.500
    0.500 0.500 0.000
