ALGO=Normal
PREC=PREC
ISYM=0
ISMEAR=0
NEW=41
IBRION=2
LREAL=A
NPAR=4