Kpoints from vasprun.xml
0
MP
2 2 1
0 0 0
