Kpoints from vasprun.xml
0
Monkhorst-Pack
2 2 1
0 0 0