Zn4 Ga4 N4 O4
1.0
11.621520 0.000000 0.000000
0.000000 3.339483 0.000000
-5.758939 0.000000 5.898960
Zn Ga N O
4 4 4 4
direct
0.438771 0.000000 0.029020 Zn
0.769545 0.500000 0.288903 Zn
0.938771 0.500000 0.029020 Zn
0.269545 0.000000 0.288903 Zn
0.847743 0.000000 0.634046 Ga
0.165347 0.500000 0.842351 Ga
0.347743 0.500000 0.634046 Ga
0.665347 0.000000 0.842351 Ga
0.938906 0.500000 0.632466 N
0.831529 0.000000 0.847251 N
0.438906 0.000000 0.632466 N
0.331529 0.500000 0.847251 N
0.739137 0.500000 0.026977 O
0.669359 0.000000 0.298987 O
0.239137 0.000000 0.026977 O
0.169359 0.500000 0.298987 O
