E = -1                                  
   1.00000000000000     
     4.6032986968960428   -0.0064986583615010   -0.0119113669830727
     0.0063731893283888    4.4759524583301138   -0.0006830275337760
     0.0121362320289664    0.0010071470645801    4.7117119450499256
   Ga   N    O    Zn
     2     2     2     2
Direct
  0.8000157315979207  0.8524251174913439  0.8124956784317326
  0.3000012305809375  0.3226347836727392  0.8125025246367991
  0.5500017398044365  0.0874785465135751  0.0492902915944521
  0.0500352996026906  0.0875107042162370  0.5756989913354147
  0.0500101941451656  0.5874885053496003  0.0403587300279388
  0.5500415844983130  0.5875081153136746  0.5846490538901862
  0.7999265342963283  0.3171692114820301  0.3125169244177114
  0.2999676854741994  0.8577850159608096  0.3124878056657581
 
  0.00000000E+00  0.00000000E+00  0.00000000E+00
  0.00000000E+00  0.00000000E+00  0.00000000E+00
  0.00000000E+00  0.00000000E+00  0.00000000E+00
  0.00000000E+00  0.00000000E+00  0.00000000E+00
  0.00000000E+00  0.00000000E+00  0.00000000E+00
  0.00000000E+00  0.00000000E+00  0.00000000E+00
  0.00000000E+00  0.00000000E+00  0.00000000E+00
  0.00000000E+00  0.00000000E+00  0.00000000E+00
