E = -1                                  
   1.00000000000000     
     4.8006454188661891   -0.2523225244077780    0.2156331858125731
    -0.2652307934100345    4.7391360100870390   -0.2011477180986587
     0.2463200868337364   -0.2094806689045431    4.5043433808125473
   Ga   N    O    Zn
     2     2     2     2
Direct
  0.7780406977743177  0.8667663498253468  0.7423747191439147
  0.9545813401245159  0.3250982389814248  0.2919591060797330
  0.7562917874909597  0.4446466466060035  0.6960642850487591
  0.9151584599356701  0.2754642291478597  0.8578053136172229
  0.8900804980395255  0.9211419790220485  0.3185615798479998
  0.3863109047989376  0.9012973719124628  0.8308900272429035
  0.3415137179289859  0.3148506333098931  0.7366551412806575
  0.2780225939070707  0.7507345511949288  0.2256898277388056
 
  0.00000000E+00  0.00000000E+00  0.00000000E+00
  0.00000000E+00  0.00000000E+00  0.00000000E+00
  0.00000000E+00  0.00000000E+00  0.00000000E+00
  0.00000000E+00  0.00000000E+00  0.00000000E+00
  0.00000000E+00  0.00000000E+00  0.00000000E+00
  0.00000000E+00  0.00000000E+00  0.00000000E+00
  0.00000000E+00  0.00000000E+00  0.00000000E+00
  0.00000000E+00  0.00000000E+00  0.00000000E+00
