E = -1                                  
   1.00000000000000     
     6.1288611779773978   -1.0590388633499537    0.0612983864907467
    -1.1891210643154377    3.0106508232993434   -0.0138569961974581
     0.0044609188381058    0.0279787964821932    5.6992935172703749
   Ga   N    O    Zn
     2     2     2     2
Direct
  0.8569998266252521  0.9319120016676401  0.5303745402442733
  0.3440607288762648  0.4191183321571070  0.8628125844281067
  0.2152360950781168  0.2902570498049882  0.5590991530087031
  0.7346685848038896  0.3096059888112383  0.3879082704851024
  0.2397775320377684  0.8148331202375453  0.0323595856034267
  0.7109924331782017  0.7860004340528494  0.8670535075644620
  0.8390712494786293  0.4140722905846428  0.0586075967489357
  0.3591935499218744  0.9342007826839875  0.4017847619169858
 
  0.00000000E+00  0.00000000E+00  0.00000000E+00
  0.00000000E+00  0.00000000E+00  0.00000000E+00
  0.00000000E+00  0.00000000E+00  0.00000000E+00
  0.00000000E+00  0.00000000E+00  0.00000000E+00
  0.00000000E+00  0.00000000E+00  0.00000000E+00
  0.00000000E+00  0.00000000E+00  0.00000000E+00
  0.00000000E+00  0.00000000E+00  0.00000000E+00
  0.00000000E+00  0.00000000E+00  0.00000000E+00
