E = -1                                  
   1.00000000000000     
     3.4834707328222674    0.2295338541698334    0.1409856801656386
     0.5599342602570794    4.9737615081563913   -0.0902119093724097
     0.0592595527799896    0.0193252205098741    5.9102735783694236
   Ga   N    O    Zn
     2     2     2     2
Direct
  0.1316741941670392  0.2059961715995367  0.1187224468095487
  0.9965939428439110  0.6070080287709835  0.7249880396729934
  0.8578215248961299  0.0151554099365992  0.6990533750557180
  0.0374493881179324  0.1831426937212685  0.8001546537209659
  0.5125607879365470  0.5704234200599926  0.5453299981089964
  0.0941481652208573  0.6099660921817464  0.0635384095552370
  0.5416668882596676  0.7331111657326047  0.2254324900333008
  0.6280851085579204  0.1751970179972769  0.4227805870432341
 
  0.00000000E+00  0.00000000E+00  0.00000000E+00
  0.00000000E+00  0.00000000E+00  0.00000000E+00
  0.00000000E+00  0.00000000E+00  0.00000000E+00
  0.00000000E+00  0.00000000E+00  0.00000000E+00
  0.00000000E+00  0.00000000E+00  0.00000000E+00
  0.00000000E+00  0.00000000E+00  0.00000000E+00
  0.00000000E+00  0.00000000E+00  0.00000000E+00
  0.00000000E+00  0.00000000E+00  0.00000000E+00
