E = -1                                  
   1.00000000000000     
     4.5904398943152094   -0.2465250361931894   -0.1586542770071995
    -0.2768704860903967    4.3632568142603763    0.2267104483827831
    -0.1586849029135875    0.2649948019530023    5.1713951435843990
   Ga   N    O    Zn
     2     2     2     2
Direct
  0.7915491380580528  0.9900055120627835  0.8629364902977913
  0.2304542734843074  0.5477966688088802  0.7894318915696736
  0.8252629192863959  0.3975014380785654  0.6660939441127689
  0.6229352839105974  0.6304435705867515  0.6618630860404754
  0.1802809696251078  0.9889455310706249  0.7218066020973676
  0.2719463865431331  0.4773056307108913  0.1555804642254348
  0.9917236361631760  0.1993532211557757  0.3578116166267468
  0.5858473929292155  0.7686484275257207  0.2844759050297491
 
  0.00000000E+00  0.00000000E+00  0.00000000E+00
  0.00000000E+00  0.00000000E+00  0.00000000E+00
  0.00000000E+00  0.00000000E+00  0.00000000E+00
  0.00000000E+00  0.00000000E+00  0.00000000E+00
  0.00000000E+00  0.00000000E+00  0.00000000E+00
  0.00000000E+00  0.00000000E+00  0.00000000E+00
  0.00000000E+00  0.00000000E+00  0.00000000E+00
  0.00000000E+00  0.00000000E+00  0.00000000E+00
