E = -1                                  
   1.00000000000000     
     4.5977639472780902    0.3317984207936361   -0.3023265073156610
     0.3226563211777609    4.6074159969484452   -0.2986872080670163
    -0.3189319644680530   -0.2832805287385040    4.9714390167917166
   Ga   N    O    Zn
     2     2     2     2
Direct
  0.7690364494824729  0.8996718799059614  0.6604369192358671
  0.3469620607744904  0.4989363586570960  0.8490178798176468
  0.9300444993528546  0.4718219602466132  0.6691252723799270
  0.7712162810431032  0.3095219309656824  0.8223216436482513
  0.8189594462897141  0.9205331178845385  0.2909375506837135
  0.3673964820268831  0.8485813962005938  0.6734790986483966
  0.8582721025228092  0.3312313109218670  0.2444267136501629
  0.2381126785076530  0.7197020452176401  0.2902549219360276
 
  0.00000000E+00  0.00000000E+00  0.00000000E+00
  0.00000000E+00  0.00000000E+00  0.00000000E+00
  0.00000000E+00  0.00000000E+00  0.00000000E+00
  0.00000000E+00  0.00000000E+00  0.00000000E+00
  0.00000000E+00  0.00000000E+00  0.00000000E+00
  0.00000000E+00  0.00000000E+00  0.00000000E+00
  0.00000000E+00  0.00000000E+00  0.00000000E+00
  0.00000000E+00  0.00000000E+00  0.00000000E+00
