Automatically generated mesh
56
Reciprocal lattice
  0.5000   0.0000   0.5000  0.0179   !   d
  0.5000   0.0714   0.5000  0.0179   !
  0.5000   0.1429   0.5000  0.0179   !
  0.5000   0.2143   0.5000  0.0179   !
  0.5000   0.2857   0.5000  0.0179   !
  0.5000   0.3571   0.5000  0.0179   !
  0.5000   0.4286   0.5000  0.0179   !
  0.5000   0.5000   0.5000  0.0179   !   g
  0.5000   0.5000   0.5000  0.0179   !   g
  0.4545   0.4545   0.4545  0.0179   !
  0.4091   0.4091   0.4091  0.0179   !
  0.3636   0.3636   0.3636  0.0179   !
  0.3182   0.3182   0.3182  0.0179   !
  0.2727   0.2727   0.2727  0.0179   !
  0.2273   0.2273   0.2273  0.0179   !
  0.1818   0.1818   0.1818  0.0179   !
  0.1364   0.1364   0.1364  0.0179   !
  0.0909   0.0909   0.0909  0.0179   !
  0.0455   0.0455   0.0455  0.0179   !
  0.0000   0.0000   0.0000  0.0179   !   Γ
  0.0000   0.0000   0.0000  0.0179   !   Γ
  0.0556   0.0000   0.0556  0.0179   !
  0.1111   0.0000   0.1111  0.0179   !
  0.1667   0.0000   0.1667  0.0179   !
  0.2222   0.0000   0.2222  0.0179   !
  0.2778   0.0000   0.2778  0.0179   !
  0.3333   0.0000   0.3333  0.0179   !
  0.3889   0.0000   0.3889  0.0179   !
  0.4444   0.0000   0.4444  0.0179   !
  0.5000   0.0000   0.5000  0.0179   !   d
  0.5000   0.0000   0.5000  0.0179   !   d
  0.4286   0.0000   0.5000  0.0179   !
  0.3571   0.0000   0.5000  0.0179   !
  0.2857   0.0000   0.5000  0.0179   !
  0.2143   0.0000   0.5000  0.0179   !
  0.1429   0.0000   0.5000  0.0179   !
  0.0714   0.0000   0.5000  0.0179   !
  0.0000   0.0000   0.5000  0.0179   !   a
  0.0000   0.0000   0.5000  0.0179   !   a
  0.0556   0.0556   0.5000  0.0179   !
  0.1111   0.1111   0.5000  0.0179   !
  0.1667   0.1667   0.5000  0.0179   !
  0.2222   0.2222   0.5000  0.0179   !
  0.2778   0.2778   0.5000  0.0179   !
  0.3333   0.3333   0.5000  0.0179   !
  0.3889   0.3889   0.5000  0.0179   !
  0.4444   0.4444   0.5000  0.0179   !
  0.5000   0.5000   0.5000  0.0179   !   g
  0.0000   0.0000   0.5000  0.0179   !   a
  0.0000   0.0000   0.4286  0.0179   !
  0.0000   0.0000   0.3571  0.0179   !
  0.0000   0.0000   0.2857  0.0179   !
  0.0000   0.0000   0.2143  0.0179   !
  0.0000   0.0000   0.1429  0.0179   !
  0.0000   0.0000   0.0714  0.0179   !
  0.0000   0.0000   0.0000  0.0179   !   Γ