E = -1
1
  2.4609  -0.2325   0.4052
 -1.0534   5.4335  -0.4492
 -0.7690  -0.6187   5.5947
H
605
Direct
  0.0000   0.0000   0.0000
  0.0000   0.0000   0.0909
  0.0000   0.0000   0.1818
  0.0000   0.0000   0.2727
  0.0000   0.0000   0.3636
  0.0000   0.0000   0.4545
  0.0000   0.0000   0.5455
  0.0000   0.0000   0.6364
  0.0000   0.0000   0.7273
  0.0000   0.0000   0.8182
  0.0000   0.0000   0.9091
  0.0000   0.0909   0.0000
  0.0000   0.0909   0.0909
  0.0000   0.0909   0.1818
  0.0000   0.0909   0.2727
  0.0000   0.0909   0.3636
  0.0000   0.0909   0.4545
  0.0000   0.0909   0.5455
  0.0000   0.0909   0.6364
  0.0000   0.0909   0.7273
  0.0000   0.0909   0.8182
  0.0000   0.0909   0.9091
  0.0000   0.1818   0.0000
  0.0000   0.1818   0.0909
  0.0000   0.1818   0.1818
  0.0000   0.1818   0.2727
  0.0000   0.1818   0.3636
  0.0000   0.1818   0.4545
  0.0000   0.1818   0.5455
  0.0000   0.1818   0.6364
  0.0000   0.1818   0.7273
  0.0000   0.1818   0.8182
  0.0000   0.1818   0.9091
  0.0000   0.2727   0.0000
  0.0000   0.2727   0.0909
  0.0000   0.2727   0.1818
  0.0000   0.2727   0.2727
  0.0000   0.2727   0.3636
  0.0000   0.2727   0.4545
  0.0000   0.2727   0.5455
  0.0000   0.2727   0.6364
  0.0000   0.2727   0.7273
  0.0000   0.2727   0.8182
  0.0000   0.2727   0.9091
  0.0000   0.3636   0.0000
  0.0000   0.3636   0.0909
  0.0000   0.3636   0.1818
  0.0000   0.3636   0.2727
  0.0000   0.3636   0.3636
  0.0000   0.3636   0.4545
  0.0000   0.3636   0.5455
  0.0000   0.3636   0.6364
  0.0000   0.3636   0.7273
  0.0000   0.3636   0.8182
  0.0000   0.3636   0.9091
  0.0000   0.4545   0.0000
  0.0000   0.4545   0.0909
  0.0000   0.4545   0.1818
  0.0000   0.4545   0.2727
  0.0000   0.4545   0.3636
  0.0000   0.4545   0.4545
  0.0000   0.4545   0.5455
  0.0000   0.4545   0.6364
  0.0000   0.4545   0.7273
  0.0000   0.4545   0.8182
  0.0000   0.4545   0.9091
  0.0000   0.5455   0.0000
  0.0000   0.5455   0.0909
  0.0000   0.5455   0.1818
  0.0000   0.5455   0.2727
  0.0000   0.5455   0.3636
  0.0000   0.5455   0.4545
  0.0000   0.5455   0.5455
  0.0000   0.5455   0.6364
  0.0000   0.5455   0.7273
  0.0000   0.5455   0.8182
  0.0000   0.5455   0.9091
  0.0000   0.6364   0.0000
  0.0000   0.6364   0.0909
  0.0000   0.6364   0.1818
  0.0000   0.6364   0.2727
  0.0000   0.6364   0.3636
  0.0000   0.6364   0.4545
  0.0000   0.6364   0.5455
  0.0000   0.6364   0.6364
  0.0000   0.6364   0.7273
  0.0000   0.6364   0.8182
  0.0000   0.6364   0.9091
  0.0000   0.7273   0.0000
  0.0000   0.7273   0.0909
  0.0000   0.7273   0.1818
  0.0000   0.7273   0.2727
  0.0000   0.7273   0.3636
  0.0000   0.7273   0.4545
  0.0000   0.7273   0.5455
  0.0000   0.7273   0.6364
  0.0000   0.7273   0.7273
  0.0000   0.7273   0.8182
  0.0000   0.7273   0.9091
  0.0000   0.8182   0.0000
  0.0000   0.8182   0.0909
  0.0000   0.8182   0.1818
  0.0000   0.8182   0.2727
  0.0000   0.8182   0.3636
  0.0000   0.8182   0.4545
  0.0000   0.8182   0.5455
  0.0000   0.8182   0.6364
  0.0000   0.8182   0.7273
  0.0000   0.8182   0.8182
  0.0000   0.8182   0.9091
  0.0000   0.9091   0.0000
  0.0000   0.9091   0.0909
  0.0000   0.9091   0.1818
  0.0000   0.9091   0.2727
  0.0000   0.9091   0.3636
  0.0000   0.9091   0.4545
  0.0000   0.9091   0.5455
  0.0000   0.9091   0.6364
  0.0000   0.9091   0.7273
  0.0000   0.9091   0.8182
  0.0000   0.9091   0.9091
  0.2000   0.0000   0.0000
  0.2000   0.0000   0.0909
  0.2000   0.0000   0.1818
  0.2000   0.0000   0.2727
  0.2000   0.0000   0.3636
  0.2000   0.0000   0.4545
  0.2000   0.0000   0.5455
  0.2000   0.0000   0.6364
  0.2000   0.0000   0.7273
  0.2000   0.0000   0.8182
  0.2000   0.0000   0.9091
  0.2000   0.0909   0.0000
  0.2000   0.0909   0.0909
  0.2000   0.0909   0.1818
  0.2000   0.0909   0.2727
  0.2000   0.0909   0.3636
  0.2000   0.0909   0.4545
  0.2000   0.0909   0.5455
  0.2000   0.0909   0.6364
  0.2000   0.0909   0.7273
  0.2000   0.0909   0.8182
  0.2000   0.0909   0.9091
  0.2000   0.1818   0.0000
  0.2000   0.1818   0.0909
  0.2000   0.1818   0.1818
  0.2000   0.1818   0.2727
  0.2000   0.1818   0.3636
  0.2000   0.1818   0.4545
  0.2000   0.1818   0.5455
  0.2000   0.1818   0.6364
  0.2000   0.1818   0.7273
  0.2000   0.1818   0.8182
  0.2000   0.1818   0.9091
  0.2000   0.2727   0.0000
  0.2000   0.2727   0.0909
  0.2000   0.2727   0.1818
  0.2000   0.2727   0.2727
  0.2000   0.2727   0.3636
  0.2000   0.2727   0.4545
  0.2000   0.2727   0.5455
  0.2000   0.2727   0.6364
  0.2000   0.2727   0.7273
  0.2000   0.2727   0.8182
  0.2000   0.2727   0.9091
  0.2000   0.3636   0.0000
  0.2000   0.3636   0.0909
  0.2000   0.3636   0.1818
  0.2000   0.3636   0.2727
  0.2000   0.3636   0.3636
  0.2000   0.3636   0.4545
  0.2000   0.3636   0.5455
  0.2000   0.3636   0.6364
  0.2000   0.3636   0.7273
  0.2000   0.3636   0.8182
  0.2000   0.3636   0.9091
  0.2000   0.4545   0.0000
  0.2000   0.4545   0.0909
  0.2000   0.4545   0.1818
  0.2000   0.4545   0.2727
  0.2000   0.4545   0.3636
  0.2000   0.4545   0.4545
  0.2000   0.4545   0.5455
  0.2000   0.4545   0.6364
  0.2000   0.4545   0.7273
  0.2000   0.4545   0.8182
  0.2000   0.4545   0.9091
  0.2000   0.5455   0.0000
  0.2000   0.5455   0.0909
  0.2000   0.5455   0.1818
  0.2000   0.5455   0.2727
  0.2000   0.5455   0.3636
  0.2000   0.5455   0.4545
  0.2000   0.5455   0.5455
  0.2000   0.5455   0.6364
  0.2000   0.5455   0.7273
  0.2000   0.5455   0.8182
  0.2000   0.5455   0.9091
  0.2000   0.6364   0.0000
  0.2000   0.6364   0.0909
  0.2000   0.6364   0.1818
  0.2000   0.6364   0.2727
  0.2000   0.6364   0.3636
  0.2000   0.6364   0.4545
  0.2000   0.6364   0.5455
  0.2000   0.6364   0.6364
  0.2000   0.6364   0.7273
  0.2000   0.6364   0.8182
  0.2000   0.6364   0.9091
  0.2000   0.7273   0.0000
  0.2000   0.7273   0.0909
  0.2000   0.7273   0.1818
  0.2000   0.7273   0.2727
  0.2000   0.7273   0.3636
  0.2000   0.7273   0.4545
  0.2000   0.7273   0.5455
  0.2000   0.7273   0.6364
  0.2000   0.7273   0.7273
  0.2000   0.7273   0.8182
  0.2000   0.7273   0.9091
  0.2000   0.8182   0.0000
  0.2000   0.8182   0.0909
  0.2000   0.8182   0.1818
  0.2000   0.8182   0.2727
  0.2000   0.8182   0.3636
  0.2000   0.8182   0.4545
  0.2000   0.8182   0.5455
  0.2000   0.8182   0.6364
  0.2000   0.8182   0.7273
  0.2000   0.8182   0.8182
  0.2000   0.8182   0.9091
  0.2000   0.9091   0.0000
  0.2000   0.9091   0.0909
  0.2000   0.9091   0.1818
  0.2000   0.9091   0.2727
  0.2000   0.9091   0.3636
  0.2000   0.9091   0.4545
  0.2000   0.9091   0.5455
  0.2000   0.9091   0.6364
  0.2000   0.9091   0.7273
  0.2000   0.9091   0.8182
  0.2000   0.9091   0.9091
  0.4000   0.0000   0.0000
  0.4000   0.0000   0.0909
  0.4000   0.0000   0.1818
  0.4000   0.0000   0.2727
  0.4000   0.0000   0.3636
  0.4000   0.0000   0.4545
  0.4000   0.0000   0.5455
  0.4000   0.0000   0.6364
  0.4000   0.0000   0.7273
  0.4000   0.0000   0.8182
  0.4000   0.0000   0.9091
  0.4000   0.0909   0.0000
  0.4000   0.0909   0.0909
  0.4000   0.0909   0.1818
  0.4000   0.0909   0.2727
  0.4000   0.0909   0.3636
  0.4000   0.0909   0.4545
  0.4000   0.0909   0.5455
  0.4000   0.0909   0.6364
  0.4000   0.0909   0.7273
  0.4000   0.0909   0.8182
  0.4000   0.0909   0.9091
  0.4000   0.1818   0.0000
  0.4000   0.1818   0.0909
  0.4000   0.1818   0.1818
  0.4000   0.1818   0.2727
  0.4000   0.1818   0.3636
  0.4000   0.1818   0.4545
  0.4000   0.1818   0.5455
  0.4000   0.1818   0.6364
  0.4000   0.1818   0.7273
  0.4000   0.1818   0.8182
  0.4000   0.1818   0.9091
  0.4000   0.2727   0.0000
  0.4000   0.2727   0.0909
  0.4000   0.2727   0.1818
  0.4000   0.2727   0.2727
  0.4000   0.2727   0.3636
  0.4000   0.2727   0.4545
  0.4000   0.2727   0.5455
  0.4000   0.2727   0.6364
  0.4000   0.2727   0.7273
  0.4000   0.2727   0.8182
  0.4000   0.2727   0.9091
  0.4000   0.3636   0.0000
  0.4000   0.3636   0.0909
  0.4000   0.3636   0.1818
  0.4000   0.3636   0.2727
  0.4000   0.3636   0.3636
  0.4000   0.3636   0.4545
  0.4000   0.3636   0.5455
  0.4000   0.3636   0.6364
  0.4000   0.3636   0.7273
  0.4000   0.3636   0.8182
  0.4000   0.3636   0.9091
  0.4000   0.4545   0.0000
  0.4000   0.4545   0.0909
  0.4000   0.4545   0.1818
  0.4000   0.4545   0.2727
  0.4000   0.4545   0.3636
  0.4000   0.4545   0.4545
  0.4000   0.4545   0.5455
  0.4000   0.4545   0.6364
  0.4000   0.4545   0.7273
  0.4000   0.4545   0.8182
  0.4000   0.4545   0.9091
  0.4000   0.5455   0.0000
  0.4000   0.5455   0.0909
  0.4000   0.5455   0.1818
  0.4000   0.5455   0.2727
  0.4000   0.5455   0.3636
  0.4000   0.5455   0.4545
  0.4000   0.5455   0.5455
  0.4000   0.5455   0.6364
  0.4000   0.5455   0.7273
  0.4000   0.5455   0.8182
  0.4000   0.5455   0.9091
  0.4000   0.6364   0.0000
  0.4000   0.6364   0.0909
  0.4000   0.6364   0.1818
  0.4000   0.6364   0.2727
  0.4000   0.6364   0.3636
  0.4000   0.6364   0.4545
  0.4000   0.6364   0.5455
  0.4000   0.6364   0.6364
  0.4000   0.6364   0.7273
  0.4000   0.6364   0.8182
  0.4000   0.6364   0.9091
  0.4000   0.7273   0.0000
  0.4000   0.7273   0.0909
  0.4000   0.7273   0.1818
  0.4000   0.7273   0.2727
  0.4000   0.7273   0.3636
  0.4000   0.7273   0.4545
  0.4000   0.7273   0.5455
  0.4000   0.7273   0.6364
  0.4000   0.7273   0.7273
  0.4000   0.7273   0.8182
  0.4000   0.7273   0.9091
  0.4000   0.8182   0.0000
  0.4000   0.8182   0.0909
  0.4000   0.8182   0.1818
  0.4000   0.8182   0.2727
  0.4000   0.8182   0.3636
  0.4000   0.8182   0.4545
  0.4000   0.8182   0.5455
  0.4000   0.8182   0.6364
  0.4000   0.8182   0.7273
  0.4000   0.8182   0.8182
  0.4000   0.8182   0.9091
  0.4000   0.9091   0.0000
  0.4000   0.9091   0.0909
  0.4000   0.9091   0.1818
  0.4000   0.9091   0.2727
  0.4000   0.9091   0.3636
  0.4000   0.9091   0.4545
  0.4000   0.9091   0.5455
  0.4000   0.9091   0.6364
  0.4000   0.9091   0.7273
  0.4000   0.9091   0.8182
  0.4000   0.9091   0.9091
  0.6000   0.0000   0.0000
  0.6000   0.0000   0.0909
  0.6000   0.0000   0.1818
  0.6000   0.0000   0.2727
  0.6000   0.0000   0.3636
  0.6000   0.0000   0.4545
  0.6000   0.0000   0.5455
  0.6000   0.0000   0.6364
  0.6000   0.0000   0.7273
  0.6000   0.0000   0.8182
  0.6000   0.0000   0.9091
  0.6000   0.0909   0.0000
  0.6000   0.0909   0.0909
  0.6000   0.0909   0.1818
  0.6000   0.0909   0.2727
  0.6000   0.0909   0.3636
  0.6000   0.0909   0.4545
  0.6000   0.0909   0.5455
  0.6000   0.0909   0.6364
  0.6000   0.0909   0.7273
  0.6000   0.0909   0.8182
  0.6000   0.0909   0.9091
  0.6000   0.1818   0.0000
  0.6000   0.1818   0.0909
  0.6000   0.1818   0.1818
  0.6000   0.1818   0.2727
  0.6000   0.1818   0.3636
  0.6000   0.1818   0.4545
  0.6000   0.1818   0.5455
  0.6000   0.1818   0.6364
  0.6000   0.1818   0.7273
  0.6000   0.1818   0.8182
  0.6000   0.1818   0.9091
  0.6000   0.2727   0.0000
  0.6000   0.2727   0.0909
  0.6000   0.2727   0.1818
  0.6000   0.2727   0.2727
  0.6000   0.2727   0.3636
  0.6000   0.2727   0.4545
  0.6000   0.2727   0.5455
  0.6000   0.2727   0.6364
  0.6000   0.2727   0.7273
  0.6000   0.2727   0.8182
  0.6000   0.2727   0.9091
  0.6000   0.3636   0.0000
  0.6000   0.3636   0.0909
  0.6000   0.3636   0.1818
  0.6000   0.3636   0.2727
  0.6000   0.3636   0.3636
  0.6000   0.3636   0.4545
  0.6000   0.3636   0.5455
  0.6000   0.3636   0.6364
  0.6000   0.3636   0.7273
  0.6000   0.3636   0.8182
  0.6000   0.3636   0.9091
  0.6000   0.4545   0.0000
  0.6000   0.4545   0.0909
  0.6000   0.4545   0.1818
  0.6000   0.4545   0.2727
  0.6000   0.4545   0.3636
  0.6000   0.4545   0.4545
  0.6000   0.4545   0.5455
  0.6000   0.4545   0.6364
  0.6000   0.4545   0.7273
  0.6000   0.4545   0.8182
  0.6000   0.4545   0.9091
  0.6000   0.5455   0.0000
  0.6000   0.5455   0.0909
  0.6000   0.5455   0.1818
  0.6000   0.5455   0.2727
  0.6000   0.5455   0.3636
  0.6000   0.5455   0.4545
  0.6000   0.5455   0.5455
  0.6000   0.5455   0.6364
  0.6000   0.5455   0.7273
  0.6000   0.5455   0.8182
  0.6000   0.5455   0.9091
  0.6000   0.6364   0.0000
  0.6000   0.6364   0.0909
  0.6000   0.6364   0.1818
  0.6000   0.6364   0.2727
  0.6000   0.6364   0.3636
  0.6000   0.6364   0.4545
  0.6000   0.6364   0.5455
  0.6000   0.6364   0.6364
  0.6000   0.6364   0.7273
  0.6000   0.6364   0.8182
  0.6000   0.6364   0.9091
  0.6000   0.7273   0.0000
  0.6000   0.7273   0.0909
  0.6000   0.7273   0.1818
  0.6000   0.7273   0.2727
  0.6000   0.7273   0.3636
  0.6000   0.7273   0.4545
  0.6000   0.7273   0.5455
  0.6000   0.7273   0.6364
  0.6000   0.7273   0.7273
  0.6000   0.7273   0.8182
  0.6000   0.7273   0.9091
  0.6000   0.8182   0.0000
  0.6000   0.8182   0.0909
  0.6000   0.8182   0.1818
  0.6000   0.8182   0.2727
  0.6000   0.8182   0.3636
  0.6000   0.8182   0.4545
  0.6000   0.8182   0.5455
  0.6000   0.8182   0.6364
  0.6000   0.8182   0.7273
  0.6000   0.8182   0.8182
  0.6000   0.8182   0.9091
  0.6000   0.9091   0.0000
  0.6000   0.9091   0.0909
  0.6000   0.9091   0.1818
  0.6000   0.9091   0.2727
  0.6000   0.9091   0.3636
  0.6000   0.9091   0.4545
  0.6000   0.9091   0.5455
  0.6000   0.9091   0.6364
  0.6000   0.9091   0.7273
  0.6000   0.9091   0.8182
  0.6000   0.9091   0.9091
  0.8000   0.0000   0.0000
  0.8000   0.0000   0.0909
  0.8000   0.0000   0.1818
  0.8000   0.0000   0.2727
  0.8000   0.0000   0.3636
  0.8000   0.0000   0.4545
  0.8000   0.0000   0.5455
  0.8000   0.0000   0.6364
  0.8000   0.0000   0.7273
  0.8000   0.0000   0.8182
  0.8000   0.0000   0.9091
  0.8000   0.0909   0.0000
  0.8000   0.0909   0.0909
  0.8000   0.0909   0.1818
  0.8000   0.0909   0.2727
  0.8000   0.0909   0.3636
  0.8000   0.0909   0.4545
  0.8000   0.0909   0.5455
  0.8000   0.0909   0.6364
  0.8000   0.0909   0.7273
  0.8000   0.0909   0.8182
  0.8000   0.0909   0.9091
  0.8000   0.1818   0.0000
  0.8000   0.1818   0.0909
  0.8000   0.1818   0.1818
  0.8000   0.1818   0.2727
  0.8000   0.1818   0.3636
  0.8000   0.1818   0.4545
  0.8000   0.1818   0.5455
  0.8000   0.1818   0.6364
  0.8000   0.1818   0.7273
  0.8000   0.1818   0.8182
  0.8000   0.1818   0.9091
  0.8000   0.2727   0.0000
  0.8000   0.2727   0.0909
  0.8000   0.2727   0.1818
  0.8000   0.2727   0.2727
  0.8000   0.2727   0.3636
  0.8000   0.2727   0.4545
  0.8000   0.2727   0.5455
  0.8000   0.2727   0.6364
  0.8000   0.2727   0.7273
  0.8000   0.2727   0.8182
  0.8000   0.2727   0.9091
  0.8000   0.3636   0.0000
  0.8000   0.3636   0.0909
  0.8000   0.3636   0.1818
  0.8000   0.3636   0.2727
  0.8000   0.3636   0.3636
  0.8000   0.3636   0.4545
  0.8000   0.3636   0.5455
  0.8000   0.3636   0.6364
  0.8000   0.3636   0.7273
  0.8000   0.3636   0.8182
  0.8000   0.3636   0.9091
  0.8000   0.4545   0.0000
  0.8000   0.4545   0.0909
  0.8000   0.4545   0.1818
  0.8000   0.4545   0.2727
  0.8000   0.4545   0.3636
  0.8000   0.4545   0.4545
  0.8000   0.4545   0.5455
  0.8000   0.4545   0.6364
  0.8000   0.4545   0.7273
  0.8000   0.4545   0.8182
  0.8000   0.4545   0.9091
  0.8000   0.5455   0.0000
  0.8000   0.5455   0.0909
  0.8000   0.5455   0.1818
  0.8000   0.5455   0.2727
  0.8000   0.5455   0.3636
  0.8000   0.5455   0.4545
  0.8000   0.5455   0.5455
  0.8000   0.5455   0.6364
  0.8000   0.5455   0.7273
  0.8000   0.5455   0.8182
  0.8000   0.5455   0.9091
  0.8000   0.6364   0.0000
  0.8000   0.6364   0.0909
  0.8000   0.6364   0.1818
  0.8000   0.6364   0.2727
  0.8000   0.6364   0.3636
  0.8000   0.6364   0.4545
  0.8000   0.6364   0.5455
  0.8000   0.6364   0.6364
  0.8000   0.6364   0.7273
  0.8000   0.6364   0.8182
  0.8000   0.6364   0.9091
  0.8000   0.7273   0.0000
  0.8000   0.7273   0.0909
  0.8000   0.7273   0.1818
  0.8000   0.7273   0.2727
  0.8000   0.7273   0.3636
  0.8000   0.7273   0.4545
  0.8000   0.7273   0.5455
  0.8000   0.7273   0.6364
  0.8000   0.7273   0.7273
  0.8000   0.7273   0.8182
  0.8000   0.7273   0.9091
  0.8000   0.8182   0.0000
  0.8000   0.8182   0.0909
  0.8000   0.8182   0.1818
  0.8000   0.8182   0.2727
  0.8000   0.8182   0.3636
  0.8000   0.8182   0.4545
  0.8000   0.8182   0.5455
  0.8000   0.8182   0.6364
  0.8000   0.8182   0.7273
  0.8000   0.8182   0.8182
  0.8000   0.8182   0.9091
  0.8000   0.9091   0.0000
  0.8000   0.9091   0.0909
  0.8000   0.9091   0.1818
  0.8000   0.9091   0.2727
  0.8000   0.9091   0.3636
  0.8000   0.9091   0.4545
  0.8000   0.9091   0.5455
  0.8000   0.9091   0.6364
  0.8000   0.9091   0.7273
  0.8000   0.9091   0.8182
  0.8000   0.9091   0.9091