E = -1
1
  4.2540   0.0000   0.0000
 -0.9477   4.9761   0.0000
 -0.1842  -1.0573   4.9912
H
800
Direct
  0.0000   0.0000   0.0000
  0.0000   0.0000   0.1000
  0.0000   0.0000   0.2000
  0.0000   0.0000   0.3000
  0.0000   0.0000   0.4000
  0.0000   0.0000   0.5000
  0.0000   0.0000   0.6000
  0.0000   0.0000   0.7000
  0.0000   0.0000   0.8000
  0.0000   0.0000   0.9000
  0.0000   0.1000   0.0000
  0.0000   0.1000   0.1000
  0.0000   0.1000   0.2000
  0.0000   0.1000   0.3000
  0.0000   0.1000   0.4000
  0.0000   0.1000   0.5000
  0.0000   0.1000   0.6000
  0.0000   0.1000   0.7000
  0.0000   0.1000   0.8000
  0.0000   0.1000   0.9000
  0.0000   0.2000   0.0000
  0.0000   0.2000   0.1000
  0.0000   0.2000   0.2000
  0.0000   0.2000   0.3000
  0.0000   0.2000   0.4000
  0.0000   0.2000   0.5000
  0.0000   0.2000   0.6000
  0.0000   0.2000   0.7000
  0.0000   0.2000   0.8000
  0.0000   0.2000   0.9000
  0.0000   0.3000   0.0000
  0.0000   0.3000   0.1000
  0.0000   0.3000   0.2000
  0.0000   0.3000   0.3000
  0.0000   0.3000   0.4000
  0.0000   0.3000   0.5000
  0.0000   0.3000   0.6000
  0.0000   0.3000   0.7000
  0.0000   0.3000   0.8000
  0.0000   0.3000   0.9000
  0.0000   0.4000   0.0000
  0.0000   0.4000   0.1000
  0.0000   0.4000   0.2000
  0.0000   0.4000   0.3000
  0.0000   0.4000   0.4000
  0.0000   0.4000   0.5000
  0.0000   0.4000   0.6000
  0.0000   0.4000   0.7000
  0.0000   0.4000   0.8000
  0.0000   0.4000   0.9000
  0.0000   0.5000   0.0000
  0.0000   0.5000   0.1000
  0.0000   0.5000   0.2000
  0.0000   0.5000   0.3000
  0.0000   0.5000   0.4000
  0.0000   0.5000   0.5000
  0.0000   0.5000   0.6000
  0.0000   0.5000   0.7000
  0.0000   0.5000   0.8000
  0.0000   0.5000   0.9000
  0.0000   0.6000   0.0000
  0.0000   0.6000   0.1000
  0.0000   0.6000   0.2000
  0.0000   0.6000   0.3000
  0.0000   0.6000   0.4000
  0.0000   0.6000   0.5000
  0.0000   0.6000   0.6000
  0.0000   0.6000   0.7000
  0.0000   0.6000   0.8000
  0.0000   0.6000   0.9000
  0.0000   0.7000   0.0000
  0.0000   0.7000   0.1000
  0.0000   0.7000   0.2000
  0.0000   0.7000   0.3000
  0.0000   0.7000   0.4000
  0.0000   0.7000   0.5000
  0.0000   0.7000   0.6000
  0.0000   0.7000   0.7000
  0.0000   0.7000   0.8000
  0.0000   0.7000   0.9000
  0.0000   0.8000   0.0000
  0.0000   0.8000   0.1000
  0.0000   0.8000   0.2000
  0.0000   0.8000   0.3000
  0.0000   0.8000   0.4000
  0.0000   0.8000   0.5000
  0.0000   0.8000   0.6000
  0.0000   0.8000   0.7000
  0.0000   0.8000   0.8000
  0.0000   0.8000   0.9000
  0.0000   0.9000   0.0000
  0.0000   0.9000   0.1000
  0.0000   0.9000   0.2000
  0.0000   0.9000   0.3000
  0.0000   0.9000   0.4000
  0.0000   0.9000   0.5000
  0.0000   0.9000   0.6000
  0.0000   0.9000   0.7000
  0.0000   0.9000   0.8000
  0.0000   0.9000   0.9000
  0.1250   0.0000   0.0000
  0.1250   0.0000   0.1000
  0.1250   0.0000   0.2000
  0.1250   0.0000   0.3000
  0.1250   0.0000   0.4000
  0.1250   0.0000   0.5000
  0.1250   0.0000   0.6000
  0.1250   0.0000   0.7000
  0.1250   0.0000   0.8000
  0.1250   0.0000   0.9000
  0.1250   0.1000   0.0000
  0.1250   0.1000   0.1000
  0.1250   0.1000   0.2000
  0.1250   0.1000   0.3000
  0.1250   0.1000   0.4000
  0.1250   0.1000   0.5000
  0.1250   0.1000   0.6000
  0.1250   0.1000   0.7000
  0.1250   0.1000   0.8000
  0.1250   0.1000   0.9000
  0.1250   0.2000   0.0000
  0.1250   0.2000   0.1000
  0.1250   0.2000   0.2000
  0.1250   0.2000   0.3000
  0.1250   0.2000   0.4000
  0.1250   0.2000   0.5000
  0.1250   0.2000   0.6000
  0.1250   0.2000   0.7000
  0.1250   0.2000   0.8000
  0.1250   0.2000   0.9000
  0.1250   0.3000   0.0000
  0.1250   0.3000   0.1000
  0.1250   0.3000   0.2000
  0.1250   0.3000   0.3000
  0.1250   0.3000   0.4000
  0.1250   0.3000   0.5000
  0.1250   0.3000   0.6000
  0.1250   0.3000   0.7000
  0.1250   0.3000   0.8000
  0.1250   0.3000   0.9000
  0.1250   0.4000   0.0000
  0.1250   0.4000   0.1000
  0.1250   0.4000   0.2000
  0.1250   0.4000   0.3000
  0.1250   0.4000   0.4000
  0.1250   0.4000   0.5000
  0.1250   0.4000   0.6000
  0.1250   0.4000   0.7000
  0.1250   0.4000   0.8000
  0.1250   0.4000   0.9000
  0.1250   0.5000   0.0000
  0.1250   0.5000   0.1000
  0.1250   0.5000   0.2000
  0.1250   0.5000   0.3000
  0.1250   0.5000   0.4000
  0.1250   0.5000   0.5000
  0.1250   0.5000   0.6000
  0.1250   0.5000   0.7000
  0.1250   0.5000   0.8000
  0.1250   0.5000   0.9000
  0.1250   0.6000   0.0000
  0.1250   0.6000   0.1000
  0.1250   0.6000   0.2000
  0.1250   0.6000   0.3000
  0.1250   0.6000   0.4000
  0.1250   0.6000   0.5000
  0.1250   0.6000   0.6000
  0.1250   0.6000   0.7000
  0.1250   0.6000   0.8000
  0.1250   0.6000   0.9000
  0.1250   0.7000   0.0000
  0.1250   0.7000   0.1000
  0.1250   0.7000   0.2000
  0.1250   0.7000   0.3000
  0.1250   0.7000   0.4000
  0.1250   0.7000   0.5000
  0.1250   0.7000   0.6000
  0.1250   0.7000   0.7000
  0.1250   0.7000   0.8000
  0.1250   0.7000   0.9000
  0.1250   0.8000   0.0000
  0.1250   0.8000   0.1000
  0.1250   0.8000   0.2000
  0.1250   0.8000   0.3000
  0.1250   0.8000   0.4000
  0.1250   0.8000   0.5000
  0.1250   0.8000   0.6000
  0.1250   0.8000   0.7000
  0.1250   0.8000   0.8000
  0.1250   0.8000   0.9000
  0.1250   0.9000   0.0000
  0.1250   0.9000   0.1000
  0.1250   0.9000   0.2000
  0.1250   0.9000   0.3000
  0.1250   0.9000   0.4000
  0.1250   0.9000   0.5000
  0.1250   0.9000   0.6000
  0.1250   0.9000   0.7000
  0.1250   0.9000   0.8000
  0.1250   0.9000   0.9000
  0.2500   0.0000   0.0000
  0.2500   0.0000   0.1000
  0.2500   0.0000   0.2000
  0.2500   0.0000   0.3000
  0.2500   0.0000   0.4000
  0.2500   0.0000   0.5000
  0.2500   0.0000   0.6000
  0.2500   0.0000   0.7000
  0.2500   0.0000   0.8000
  0.2500   0.0000   0.9000
  0.2500   0.1000   0.0000
  0.2500   0.1000   0.1000
  0.2500   0.1000   0.2000
  0.2500   0.1000   0.3000
  0.2500   0.1000   0.4000
  0.2500   0.1000   0.5000
  0.2500   0.1000   0.6000
  0.2500   0.1000   0.7000
  0.2500   0.1000   0.8000
  0.2500   0.1000   0.9000
  0.2500   0.2000   0.0000
  0.2500   0.2000   0.1000
  0.2500   0.2000   0.2000
  0.2500   0.2000   0.3000
  0.2500   0.2000   0.4000
  0.2500   0.2000   0.5000
  0.2500   0.2000   0.6000
  0.2500   0.2000   0.7000
  0.2500   0.2000   0.8000
  0.2500   0.2000   0.9000
  0.2500   0.3000   0.0000
  0.2500   0.3000   0.1000
  0.2500   0.3000   0.2000
  0.2500   0.3000   0.3000
  0.2500   0.3000   0.4000
  0.2500   0.3000   0.5000
  0.2500   0.3000   0.6000
  0.2500   0.3000   0.7000
  0.2500   0.3000   0.8000
  0.2500   0.3000   0.9000
  0.2500   0.4000   0.0000
  0.2500   0.4000   0.1000
  0.2500   0.4000   0.2000
  0.2500   0.4000   0.3000
  0.2500   0.4000   0.4000
  0.2500   0.4000   0.5000
  0.2500   0.4000   0.6000
  0.2500   0.4000   0.7000
  0.2500   0.4000   0.8000
  0.2500   0.4000   0.9000
  0.2500   0.5000   0.0000
  0.2500   0.5000   0.1000
  0.2500   0.5000   0.2000
  0.2500   0.5000   0.3000
  0.2500   0.5000   0.4000
  0.2500   0.5000   0.5000
  0.2500   0.5000   0.6000
  0.2500   0.5000   0.7000
  0.2500   0.5000   0.8000
  0.2500   0.5000   0.9000
  0.2500   0.6000   0.0000
  0.2500   0.6000   0.1000
  0.2500   0.6000   0.2000
  0.2500   0.6000   0.3000
  0.2500   0.6000   0.4000
  0.2500   0.6000   0.5000
  0.2500   0.6000   0.6000
  0.2500   0.6000   0.7000
  0.2500   0.6000   0.8000
  0.2500   0.6000   0.9000
  0.2500   0.7000   0.0000
  0.2500   0.7000   0.1000
  0.2500   0.7000   0.2000
  0.2500   0.7000   0.3000
  0.2500   0.7000   0.4000
  0.2500   0.7000   0.5000
  0.2500   0.7000   0.6000
  0.2500   0.7000   0.7000
  0.2500   0.7000   0.8000
  0.2500   0.7000   0.9000
  0.2500   0.8000   0.0000
  0.2500   0.8000   0.1000
  0.2500   0.8000   0.2000
  0.2500   0.8000   0.3000
  0.2500   0.8000   0.4000
  0.2500   0.8000   0.5000
  0.2500   0.8000   0.6000
  0.2500   0.8000   0.7000
  0.2500   0.8000   0.8000
  0.2500   0.8000   0.9000
  0.2500   0.9000   0.0000
  0.2500   0.9000   0.1000
  0.2500   0.9000   0.2000
  0.2500   0.9000   0.3000
  0.2500   0.9000   0.4000
  0.2500   0.9000   0.5000
  0.2500   0.9000   0.6000
  0.2500   0.9000   0.7000
  0.2500   0.9000   0.8000
  0.2500   0.9000   0.9000
  0.3750   0.0000   0.0000
  0.3750   0.0000   0.1000
  0.3750   0.0000   0.2000
  0.3750   0.0000   0.3000
  0.3750   0.0000   0.4000
  0.3750   0.0000   0.5000
  0.3750   0.0000   0.6000
  0.3750   0.0000   0.7000
  0.3750   0.0000   0.8000
  0.3750   0.0000   0.9000
  0.3750   0.1000   0.0000
  0.3750   0.1000   0.1000
  0.3750   0.1000   0.2000
  0.3750   0.1000   0.3000
  0.3750   0.1000   0.4000
  0.3750   0.1000   0.5000
  0.3750   0.1000   0.6000
  0.3750   0.1000   0.7000
  0.3750   0.1000   0.8000
  0.3750   0.1000   0.9000
  0.3750   0.2000   0.0000
  0.3750   0.2000   0.1000
  0.3750   0.2000   0.2000
  0.3750   0.2000   0.3000
  0.3750   0.2000   0.4000
  0.3750   0.2000   0.5000
  0.3750   0.2000   0.6000
  0.3750   0.2000   0.7000
  0.3750   0.2000   0.8000
  0.3750   0.2000   0.9000
  0.3750   0.3000   0.0000
  0.3750   0.3000   0.1000
  0.3750   0.3000   0.2000
  0.3750   0.3000   0.3000
  0.3750   0.3000   0.4000
  0.3750   0.3000   0.5000
  0.3750   0.3000   0.6000
  0.3750   0.3000   0.7000
  0.3750   0.3000   0.8000
  0.3750   0.3000   0.9000
  0.3750   0.4000   0.0000
  0.3750   0.4000   0.1000
  0.3750   0.4000   0.2000
  0.3750   0.4000   0.3000
  0.3750   0.4000   0.4000
  0.3750   0.4000   0.5000
  0.3750   0.4000   0.6000
  0.3750   0.4000   0.7000
  0.3750   0.4000   0.8000
  0.3750   0.4000   0.9000
  0.3750   0.5000   0.0000
  0.3750   0.5000   0.1000
  0.3750   0.5000   0.2000
  0.3750   0.5000   0.3000
  0.3750   0.5000   0.4000
  0.3750   0.5000   0.5000
  0.3750   0.5000   0.6000
  0.3750   0.5000   0.7000
  0.3750   0.5000   0.8000
  0.3750   0.5000   0.9000
  0.3750   0.6000   0.0000
  0.3750   0.6000   0.1000
  0.3750   0.6000   0.2000
  0.3750   0.6000   0.3000
  0.3750   0.6000   0.4000
  0.3750   0.6000   0.5000
  0.3750   0.6000   0.6000
  0.3750   0.6000   0.7000
  0.3750   0.6000   0.8000
  0.3750   0.6000   0.9000
  0.3750   0.7000   0.0000
  0.3750   0.7000   0.1000
  0.3750   0.7000   0.2000
  0.3750   0.7000   0.3000
  0.3750   0.7000   0.4000
  0.3750   0.7000   0.5000
  0.3750   0.7000   0.6000
  0.3750   0.7000   0.7000
  0.3750   0.7000   0.8000
  0.3750   0.7000   0.9000
  0.3750   0.8000   0.0000
  0.3750   0.8000   0.1000
  0.3750   0.8000   0.2000
  0.3750   0.8000   0.3000
  0.3750   0.8000   0.4000
  0.3750   0.8000   0.5000
  0.3750   0.8000   0.6000
  0.3750   0.8000   0.7000
  0.3750   0.8000   0.8000
  0.3750   0.8000   0.9000
  0.3750   0.9000   0.0000
  0.3750   0.9000   0.1000
  0.3750   0.9000   0.2000
  0.3750   0.9000   0.3000
  0.3750   0.9000   0.4000
  0.3750   0.9000   0.5000
  0.3750   0.9000   0.6000
  0.3750   0.9000   0.7000
  0.3750   0.9000   0.8000
  0.3750   0.9000   0.9000
  0.5000   0.0000   0.0000
  0.5000   0.0000   0.1000
  0.5000   0.0000   0.2000
  0.5000   0.0000   0.3000
  0.5000   0.0000   0.4000
  0.5000   0.0000   0.5000
  0.5000   0.0000   0.6000
  0.5000   0.0000   0.7000
  0.5000   0.0000   0.8000
  0.5000   0.0000   0.9000
  0.5000   0.1000   0.0000
  0.5000   0.1000   0.1000
  0.5000   0.1000   0.2000
  0.5000   0.1000   0.3000
  0.5000   0.1000   0.4000
  0.5000   0.1000   0.5000
  0.5000   0.1000   0.6000
  0.5000   0.1000   0.7000
  0.5000   0.1000   0.8000
  0.5000   0.1000   0.9000
  0.5000   0.2000   0.0000
  0.5000   0.2000   0.1000
  0.5000   0.2000   0.2000
  0.5000   0.2000   0.3000
  0.5000   0.2000   0.4000
  0.5000   0.2000   0.5000
  0.5000   0.2000   0.6000
  0.5000   0.2000   0.7000
  0.5000   0.2000   0.8000
  0.5000   0.2000   0.9000
  0.5000   0.3000   0.0000
  0.5000   0.3000   0.1000
  0.5000   0.3000   0.2000
  0.5000   0.3000   0.3000
  0.5000   0.3000   0.4000
  0.5000   0.3000   0.5000
  0.5000   0.3000   0.6000
  0.5000   0.3000   0.7000
  0.5000   0.3000   0.8000
  0.5000   0.3000   0.9000
  0.5000   0.4000   0.0000
  0.5000   0.4000   0.1000
  0.5000   0.4000   0.2000
  0.5000   0.4000   0.3000
  0.5000   0.4000   0.4000
  0.5000   0.4000   0.5000
  0.5000   0.4000   0.6000
  0.5000   0.4000   0.7000
  0.5000   0.4000   0.8000
  0.5000   0.4000   0.9000
  0.5000   0.5000   0.0000
  0.5000   0.5000   0.1000
  0.5000   0.5000   0.2000
  0.5000   0.5000   0.3000
  0.5000   0.5000   0.4000
  0.5000   0.5000   0.5000
  0.5000   0.5000   0.6000
  0.5000   0.5000   0.7000
  0.5000   0.5000   0.8000
  0.5000   0.5000   0.9000
  0.5000   0.6000   0.0000
  0.5000   0.6000   0.1000
  0.5000   0.6000   0.2000
  0.5000   0.6000   0.3000
  0.5000   0.6000   0.4000
  0.5000   0.6000   0.5000
  0.5000   0.6000   0.6000
  0.5000   0.6000   0.7000
  0.5000   0.6000   0.8000
  0.5000   0.6000   0.9000
  0.5000   0.7000   0.0000
  0.5000   0.7000   0.1000
  0.5000   0.7000   0.2000
  0.5000   0.7000   0.3000
  0.5000   0.7000   0.4000
  0.5000   0.7000   0.5000
  0.5000   0.7000   0.6000
  0.5000   0.7000   0.7000
  0.5000   0.7000   0.8000
  0.5000   0.7000   0.9000
  0.5000   0.8000   0.0000
  0.5000   0.8000   0.1000
  0.5000   0.8000   0.2000
  0.5000   0.8000   0.3000
  0.5000   0.8000   0.4000
  0.5000   0.8000   0.5000
  0.5000   0.8000   0.6000
  0.5000   0.8000   0.7000
  0.5000   0.8000   0.8000
  0.5000   0.8000   0.9000
  0.5000   0.9000   0.0000
  0.5000   0.9000   0.1000
  0.5000   0.9000   0.2000
  0.5000   0.9000   0.3000
  0.5000   0.9000   0.4000
  0.5000   0.9000   0.5000
  0.5000   0.9000   0.6000
  0.5000   0.9000   0.7000
  0.5000   0.9000   0.8000
  0.5000   0.9000   0.9000
  0.6250   0.0000   0.0000
  0.6250   0.0000   0.1000
  0.6250   0.0000   0.2000
  0.6250   0.0000   0.3000
  0.6250   0.0000   0.4000
  0.6250   0.0000   0.5000
  0.6250   0.0000   0.6000
  0.6250   0.0000   0.7000
  0.6250   0.0000   0.8000
  0.6250   0.0000   0.9000
  0.6250   0.1000   0.0000
  0.6250   0.1000   0.1000
  0.6250   0.1000   0.2000
  0.6250   0.1000   0.3000
  0.6250   0.1000   0.4000
  0.6250   0.1000   0.5000
  0.6250   0.1000   0.6000
  0.6250   0.1000   0.7000
  0.6250   0.1000   0.8000
  0.6250   0.1000   0.9000
  0.6250   0.2000   0.0000
  0.6250   0.2000   0.1000
  0.6250   0.2000   0.2000
  0.6250   0.2000   0.3000
  0.6250   0.2000   0.4000
  0.6250   0.2000   0.5000
  0.6250   0.2000   0.6000
  0.6250   0.2000   0.7000
  0.6250   0.2000   0.8000
  0.6250   0.2000   0.9000
  0.6250   0.3000   0.0000
  0.6250   0.3000   0.1000
  0.6250   0.3000   0.2000
  0.6250   0.3000   0.3000
  0.6250   0.3000   0.4000
  0.6250   0.3000   0.5000
  0.6250   0.3000   0.6000
  0.6250   0.3000   0.7000
  0.6250   0.3000   0.8000
  0.6250   0.3000   0.9000
  0.6250   0.4000   0.0000
  0.6250   0.4000   0.1000
  0.6250   0.4000   0.2000
  0.6250   0.4000   0.3000
  0.6250   0.4000   0.4000
  0.6250   0.4000   0.5000
  0.6250   0.4000   0.6000
  0.6250   0.4000   0.7000
  0.6250   0.4000   0.8000
  0.6250   0.4000   0.9000
  0.6250   0.5000   0.0000
  0.6250   0.5000   0.1000
  0.6250   0.5000   0.2000
  0.6250   0.5000   0.3000
  0.6250   0.5000   0.4000
  0.6250   0.5000   0.5000
  0.6250   0.5000   0.6000
  0.6250   0.5000   0.7000
  0.6250   0.5000   0.8000
  0.6250   0.5000   0.9000
  0.6250   0.6000   0.0000
  0.6250   0.6000   0.1000
  0.6250   0.6000   0.2000
  0.6250   0.6000   0.3000
  0.6250   0.6000   0.4000
  0.6250   0.6000   0.5000
  0.6250   0.6000   0.6000
  0.6250   0.6000   0.7000
  0.6250   0.6000   0.8000
  0.6250   0.6000   0.9000
  0.6250   0.7000   0.0000
  0.6250   0.7000   0.1000
  0.6250   0.7000   0.2000
  0.6250   0.7000   0.3000
  0.6250   0.7000   0.4000
  0.6250   0.7000   0.5000
  0.6250   0.7000   0.6000
  0.6250   0.7000   0.7000
  0.6250   0.7000   0.8000
  0.6250   0.7000   0.9000
  0.6250   0.8000   0.0000
  0.6250   0.8000   0.1000
  0.6250   0.8000   0.2000
  0.6250   0.8000   0.3000
  0.6250   0.8000   0.4000
  0.6250   0.8000   0.5000
  0.6250   0.8000   0.6000
  0.6250   0.8000   0.7000
  0.6250   0.8000   0.8000
  0.6250   0.8000   0.9000
  0.6250   0.9000   0.0000
  0.6250   0.9000   0.1000
  0.6250   0.9000   0.2000
  0.6250   0.9000   0.3000
  0.6250   0.9000   0.4000
  0.6250   0.9000   0.5000
  0.6250   0.9000   0.6000
  0.6250   0.9000   0.7000
  0.6250   0.9000   0.8000
  0.6250   0.9000   0.9000
  0.7500   0.0000   0.0000
  0.7500   0.0000   0.1000
  0.7500   0.0000   0.2000
  0.7500   0.0000   0.3000
  0.7500   0.0000   0.4000
  0.7500   0.0000   0.5000
  0.7500   0.0000   0.6000
  0.7500   0.0000   0.7000
  0.7500   0.0000   0.8000
  0.7500   0.0000   0.9000
  0.7500   0.1000   0.0000
  0.7500   0.1000   0.1000
  0.7500   0.1000   0.2000
  0.7500   0.1000   0.3000
  0.7500   0.1000   0.4000
  0.7500   0.1000   0.5000
  0.7500   0.1000   0.6000
  0.7500   0.1000   0.7000
  0.7500   0.1000   0.8000
  0.7500   0.1000   0.9000
  0.7500   0.2000   0.0000
  0.7500   0.2000   0.1000
  0.7500   0.2000   0.2000
  0.7500   0.2000   0.3000
  0.7500   0.2000   0.4000
  0.7500   0.2000   0.5000
  0.7500   0.2000   0.6000
  0.7500   0.2000   0.7000
  0.7500   0.2000   0.8000
  0.7500   0.2000   0.9000
  0.7500   0.3000   0.0000
  0.7500   0.3000   0.1000
  0.7500   0.3000   0.2000
  0.7500   0.3000   0.3000
  0.7500   0.3000   0.4000
  0.7500   0.3000   0.5000
  0.7500   0.3000   0.6000
  0.7500   0.3000   0.7000
  0.7500   0.3000   0.8000
  0.7500   0.3000   0.9000
  0.7500   0.4000   0.0000
  0.7500   0.4000   0.1000
  0.7500   0.4000   0.2000
  0.7500   0.4000   0.3000
  0.7500   0.4000   0.4000
  0.7500   0.4000   0.5000
  0.7500   0.4000   0.6000
  0.7500   0.4000   0.7000
  0.7500   0.4000   0.8000
  0.7500   0.4000   0.9000
  0.7500   0.5000   0.0000
  0.7500   0.5000   0.1000
  0.7500   0.5000   0.2000
  0.7500   0.5000   0.3000
  0.7500   0.5000   0.4000
  0.7500   0.5000   0.5000
  0.7500   0.5000   0.6000
  0.7500   0.5000   0.7000
  0.7500   0.5000   0.8000
  0.7500   0.5000   0.9000
  0.7500   0.6000   0.0000
  0.7500   0.6000   0.1000
  0.7500   0.6000   0.2000
  0.7500   0.6000   0.3000
  0.7500   0.6000   0.4000
  0.7500   0.6000   0.5000
  0.7500   0.6000   0.6000
  0.7500   0.6000   0.7000
  0.7500   0.6000   0.8000
  0.7500   0.6000   0.9000
  0.7500   0.7000   0.0000
  0.7500   0.7000   0.1000
  0.7500   0.7000   0.2000
  0.7500   0.7000   0.3000
  0.7500   0.7000   0.4000
  0.7500   0.7000   0.5000
  0.7500   0.7000   0.6000
  0.7500   0.7000   0.7000
  0.7500   0.7000   0.8000
  0.7500   0.7000   0.9000
  0.7500   0.8000   0.0000
  0.7500   0.8000   0.1000
  0.7500   0.8000   0.2000
  0.7500   0.8000   0.3000
  0.7500   0.8000   0.4000
  0.7500   0.8000   0.5000
  0.7500   0.8000   0.6000
  0.7500   0.8000   0.7000
  0.7500   0.8000   0.8000
  0.7500   0.8000   0.9000
  0.7500   0.9000   0.0000
  0.7500   0.9000   0.1000
  0.7500   0.9000   0.2000
  0.7500   0.9000   0.3000
  0.7500   0.9000   0.4000
  0.7500   0.9000   0.5000
  0.7500   0.9000   0.6000
  0.7500   0.9000   0.7000
  0.7500   0.9000   0.8000
  0.7500   0.9000   0.9000
  0.8750   0.0000   0.0000
  0.8750   0.0000   0.1000
  0.8750   0.0000   0.2000
  0.8750   0.0000   0.3000
  0.8750   0.0000   0.4000
  0.8750   0.0000   0.5000
  0.8750   0.0000   0.6000
  0.8750   0.0000   0.7000
  0.8750   0.0000   0.8000
  0.8750   0.0000   0.9000
  0.8750   0.1000   0.0000
  0.8750   0.1000   0.1000
  0.8750   0.1000   0.2000
  0.8750   0.1000   0.3000
  0.8750   0.1000   0.4000
  0.8750   0.1000   0.5000
  0.8750   0.1000   0.6000
  0.8750   0.1000   0.7000
  0.8750   0.1000   0.8000
  0.8750   0.1000   0.9000
  0.8750   0.2000   0.0000
  0.8750   0.2000   0.1000
  0.8750   0.2000   0.2000
  0.8750   0.2000   0.3000
  0.8750   0.2000   0.4000
  0.8750   0.2000   0.5000
  0.8750   0.2000   0.6000
  0.8750   0.2000   0.7000
  0.8750   0.2000   0.8000
  0.8750   0.2000   0.9000
  0.8750   0.3000   0.0000
  0.8750   0.3000   0.1000
  0.8750   0.3000   0.2000
  0.8750   0.3000   0.3000
  0.8750   0.3000   0.4000
  0.8750   0.3000   0.5000
  0.8750   0.3000   0.6000
  0.8750   0.3000   0.7000
  0.8750   0.3000   0.8000
  0.8750   0.3000   0.9000
  0.8750   0.4000   0.0000
  0.8750   0.4000   0.1000
  0.8750   0.4000   0.2000
  0.8750   0.4000   0.3000
  0.8750   0.4000   0.4000
  0.8750   0.4000   0.5000
  0.8750   0.4000   0.6000
  0.8750   0.4000   0.7000
  0.8750   0.4000   0.8000
  0.8750   0.4000   0.9000
  0.8750   0.5000   0.0000
  0.8750   0.5000   0.1000
  0.8750   0.5000   0.2000
  0.8750   0.5000   0.3000
  0.8750   0.5000   0.4000
  0.8750   0.5000   0.5000
  0.8750   0.5000   0.6000
  0.8750   0.5000   0.7000
  0.8750   0.5000   0.8000
  0.8750   0.5000   0.9000
  0.8750   0.6000   0.0000
  0.8750   0.6000   0.1000
  0.8750   0.6000   0.2000
  0.8750   0.6000   0.3000
  0.8750   0.6000   0.4000
  0.8750   0.6000   0.5000
  0.8750   0.6000   0.6000
  0.8750   0.6000   0.7000
  0.8750   0.6000   0.8000
  0.8750   0.6000   0.9000
  0.8750   0.7000   0.0000
  0.8750   0.7000   0.1000
  0.8750   0.7000   0.2000
  0.8750   0.7000   0.3000
  0.8750   0.7000   0.4000
  0.8750   0.7000   0.5000
  0.8750   0.7000   0.6000
  0.8750   0.7000   0.7000
  0.8750   0.7000   0.8000
  0.8750   0.7000   0.9000
  0.8750   0.8000   0.0000
  0.8750   0.8000   0.1000
  0.8750   0.8000   0.2000
  0.8750   0.8000   0.3000
  0.8750   0.8000   0.4000
  0.8750   0.8000   0.5000
  0.8750   0.8000   0.6000
  0.8750   0.8000   0.7000
  0.8750   0.8000   0.8000
  0.8750   0.8000   0.9000
  0.8750   0.9000   0.0000
  0.8750   0.9000   0.1000
  0.8750   0.9000   0.2000
  0.8750   0.9000   0.3000
  0.8750   0.9000   0.4000
  0.8750   0.9000   0.5000
  0.8750   0.9000   0.6000
  0.8750   0.9000   0.7000
  0.8750   0.9000   0.8000
  0.8750   0.9000   0.9000