E = -1
1
  3.2193  -0.5792   0.0009
 -1.3155   5.3642   0.4079
 -1.1741  -0.0170   6.8639
H
858
Direct
  0.0000   0.0000   0.0000
  0.0000   0.0000   0.0769
  0.0000   0.0000   0.1538
  0.0000   0.0000   0.2308
  0.0000   0.0000   0.3077
  0.0000   0.0000   0.3846
  0.0000   0.0000   0.4615
  0.0000   0.0000   0.5385
  0.0000   0.0000   0.6154
  0.0000   0.0000   0.6923
  0.0000   0.0000   0.7692
  0.0000   0.0000   0.8462
  0.0000   0.0000   0.9231
  0.0000   0.0909   0.0000
  0.0000   0.0909   0.0769
  0.0000   0.0909   0.1538
  0.0000   0.0909   0.2308
  0.0000   0.0909   0.3077
  0.0000   0.0909   0.3846
  0.0000   0.0909   0.4615
  0.0000   0.0909   0.5385
  0.0000   0.0909   0.6154
  0.0000   0.0909   0.6923
  0.0000   0.0909   0.7692
  0.0000   0.0909   0.8462
  0.0000   0.0909   0.9231
  0.0000   0.1818   0.0000
  0.0000   0.1818   0.0769
  0.0000   0.1818   0.1538
  0.0000   0.1818   0.2308
  0.0000   0.1818   0.3077
  0.0000   0.1818   0.3846
  0.0000   0.1818   0.4615
  0.0000   0.1818   0.5385
  0.0000   0.1818   0.6154
  0.0000   0.1818   0.6923
  0.0000   0.1818   0.7692
  0.0000   0.1818   0.8462
  0.0000   0.1818   0.9231
  0.0000   0.2727   0.0000
  0.0000   0.2727   0.0769
  0.0000   0.2727   0.1538
  0.0000   0.2727   0.2308
  0.0000   0.2727   0.3077
  0.0000   0.2727   0.3846
  0.0000   0.2727   0.4615
  0.0000   0.2727   0.5385
  0.0000   0.2727   0.6154
  0.0000   0.2727   0.6923
  0.0000   0.2727   0.7692
  0.0000   0.2727   0.8462
  0.0000   0.2727   0.9231
  0.0000   0.3636   0.0000
  0.0000   0.3636   0.0769
  0.0000   0.3636   0.1538
  0.0000   0.3636   0.2308
  0.0000   0.3636   0.3077
  0.0000   0.3636   0.3846
  0.0000   0.3636   0.4615
  0.0000   0.3636   0.5385
  0.0000   0.3636   0.6154
  0.0000   0.3636   0.6923
  0.0000   0.3636   0.7692
  0.0000   0.3636   0.8462
  0.0000   0.3636   0.9231
  0.0000   0.4545   0.0000
  0.0000   0.4545   0.0769
  0.0000   0.4545   0.1538
  0.0000   0.4545   0.2308
  0.0000   0.4545   0.3077
  0.0000   0.4545   0.3846
  0.0000   0.4545   0.4615
  0.0000   0.4545   0.5385
  0.0000   0.4545   0.6154
  0.0000   0.4545   0.6923
  0.0000   0.4545   0.7692
  0.0000   0.4545   0.8462
  0.0000   0.4545   0.9231
  0.0000   0.5455   0.0000
  0.0000   0.5455   0.0769
  0.0000   0.5455   0.1538
  0.0000   0.5455   0.2308
  0.0000   0.5455   0.3077
  0.0000   0.5455   0.3846
  0.0000   0.5455   0.4615
  0.0000   0.5455   0.5385
  0.0000   0.5455   0.6154
  0.0000   0.5455   0.6923
  0.0000   0.5455   0.7692
  0.0000   0.5455   0.8462
  0.0000   0.5455   0.9231
  0.0000   0.6364   0.0000
  0.0000   0.6364   0.0769
  0.0000   0.6364   0.1538
  0.0000   0.6364   0.2308
  0.0000   0.6364   0.3077
  0.0000   0.6364   0.3846
  0.0000   0.6364   0.4615
  0.0000   0.6364   0.5385
  0.0000   0.6364   0.6154
  0.0000   0.6364   0.6923
  0.0000   0.6364   0.7692
  0.0000   0.6364   0.8462
  0.0000   0.6364   0.9231
  0.0000   0.7273   0.0000
  0.0000   0.7273   0.0769
  0.0000   0.7273   0.1538
  0.0000   0.7273   0.2308
  0.0000   0.7273   0.3077
  0.0000   0.7273   0.3846
  0.0000   0.7273   0.4615
  0.0000   0.7273   0.5385
  0.0000   0.7273   0.6154
  0.0000   0.7273   0.6923
  0.0000   0.7273   0.7692
  0.0000   0.7273   0.8462
  0.0000   0.7273   0.9231
  0.0000   0.8182   0.0000
  0.0000   0.8182   0.0769
  0.0000   0.8182   0.1538
  0.0000   0.8182   0.2308
  0.0000   0.8182   0.3077
  0.0000   0.8182   0.3846
  0.0000   0.8182   0.4615
  0.0000   0.8182   0.5385
  0.0000   0.8182   0.6154
  0.0000   0.8182   0.6923
  0.0000   0.8182   0.7692
  0.0000   0.8182   0.8462
  0.0000   0.8182   0.9231
  0.0000   0.9091   0.0000
  0.0000   0.9091   0.0769
  0.0000   0.9091   0.1538
  0.0000   0.9091   0.2308
  0.0000   0.9091   0.3077
  0.0000   0.9091   0.3846
  0.0000   0.9091   0.4615
  0.0000   0.9091   0.5385
  0.0000   0.9091   0.6154
  0.0000   0.9091   0.6923
  0.0000   0.9091   0.7692
  0.0000   0.9091   0.8462
  0.0000   0.9091   0.9231
  0.1667   0.0000   0.0000
  0.1667   0.0000   0.0769
  0.1667   0.0000   0.1538
  0.1667   0.0000   0.2308
  0.1667   0.0000   0.3077
  0.1667   0.0000   0.3846
  0.1667   0.0000   0.4615
  0.1667   0.0000   0.5385
  0.1667   0.0000   0.6154
  0.1667   0.0000   0.6923
  0.1667   0.0000   0.7692
  0.1667   0.0000   0.8462
  0.1667   0.0000   0.9231
  0.1667   0.0909   0.0000
  0.1667   0.0909   0.0769
  0.1667   0.0909   0.1538
  0.1667   0.0909   0.2308
  0.1667   0.0909   0.3077
  0.1667   0.0909   0.3846
  0.1667   0.0909   0.4615
  0.1667   0.0909   0.5385
  0.1667   0.0909   0.6154
  0.1667   0.0909   0.6923
  0.1667   0.0909   0.7692
  0.1667   0.0909   0.8462
  0.1667   0.0909   0.9231
  0.1667   0.1818   0.0000
  0.1667   0.1818   0.0769
  0.1667   0.1818   0.1538
  0.1667   0.1818   0.2308
  0.1667   0.1818   0.3077
  0.1667   0.1818   0.3846
  0.1667   0.1818   0.4615
  0.1667   0.1818   0.5385
  0.1667   0.1818   0.6154
  0.1667   0.1818   0.6923
  0.1667   0.1818   0.7692
  0.1667   0.1818   0.8462
  0.1667   0.1818   0.9231
  0.1667   0.2727   0.0000
  0.1667   0.2727   0.0769
  0.1667   0.2727   0.1538
  0.1667   0.2727   0.2308
  0.1667   0.2727   0.3077
  0.1667   0.2727   0.3846
  0.1667   0.2727   0.4615
  0.1667   0.2727   0.5385
  0.1667   0.2727   0.6154
  0.1667   0.2727   0.6923
  0.1667   0.2727   0.7692
  0.1667   0.2727   0.8462
  0.1667   0.2727   0.9231
  0.1667   0.3636   0.0000
  0.1667   0.3636   0.0769
  0.1667   0.3636   0.1538
  0.1667   0.3636   0.2308
  0.1667   0.3636   0.3077
  0.1667   0.3636   0.3846
  0.1667   0.3636   0.4615
  0.1667   0.3636   0.5385
  0.1667   0.3636   0.6154
  0.1667   0.3636   0.6923
  0.1667   0.3636   0.7692
  0.1667   0.3636   0.8462
  0.1667   0.3636   0.9231
  0.1667   0.4545   0.0000
  0.1667   0.4545   0.0769
  0.1667   0.4545   0.1538
  0.1667   0.4545   0.2308
  0.1667   0.4545   0.3077
  0.1667   0.4545   0.3846
  0.1667   0.4545   0.4615
  0.1667   0.4545   0.5385
  0.1667   0.4545   0.6154
  0.1667   0.4545   0.6923
  0.1667   0.4545   0.7692
  0.1667   0.4545   0.8462
  0.1667   0.4545   0.9231
  0.1667   0.5455   0.0000
  0.1667   0.5455   0.0769
  0.1667   0.5455   0.1538
  0.1667   0.5455   0.2308
  0.1667   0.5455   0.3077
  0.1667   0.5455   0.3846
  0.1667   0.5455   0.4615
  0.1667   0.5455   0.5385
  0.1667   0.5455   0.6154
  0.1667   0.5455   0.6923
  0.1667   0.5455   0.7692
  0.1667   0.5455   0.8462
  0.1667   0.5455   0.9231
  0.1667   0.6364   0.0000
  0.1667   0.6364   0.0769
  0.1667   0.6364   0.1538
  0.1667   0.6364   0.2308
  0.1667   0.6364   0.3077
  0.1667   0.6364   0.3846
  0.1667   0.6364   0.4615
  0.1667   0.6364   0.5385
  0.1667   0.6364   0.6154
  0.1667   0.6364   0.6923
  0.1667   0.6364   0.7692
  0.1667   0.6364   0.8462
  0.1667   0.6364   0.9231
  0.1667   0.7273   0.0000
  0.1667   0.7273   0.0769
  0.1667   0.7273   0.1538
  0.1667   0.7273   0.2308
  0.1667   0.7273   0.3077
  0.1667   0.7273   0.3846
  0.1667   0.7273   0.4615
  0.1667   0.7273   0.5385
  0.1667   0.7273   0.6154
  0.1667   0.7273   0.6923
  0.1667   0.7273   0.7692
  0.1667   0.7273   0.8462
  0.1667   0.7273   0.9231
  0.1667   0.8182   0.0000
  0.1667   0.8182   0.0769
  0.1667   0.8182   0.1538
  0.1667   0.8182   0.2308
  0.1667   0.8182   0.3077
  0.1667   0.8182   0.3846
  0.1667   0.8182   0.4615
  0.1667   0.8182   0.5385
  0.1667   0.8182   0.6154
  0.1667   0.8182   0.6923
  0.1667   0.8182   0.7692
  0.1667   0.8182   0.8462
  0.1667   0.8182   0.9231
  0.1667   0.9091   0.0000
  0.1667   0.9091   0.0769
  0.1667   0.9091   0.1538
  0.1667   0.9091   0.2308
  0.1667   0.9091   0.3077
  0.1667   0.9091   0.3846
  0.1667   0.9091   0.4615
  0.1667   0.9091   0.5385
  0.1667   0.9091   0.6154
  0.1667   0.9091   0.6923
  0.1667   0.9091   0.7692
  0.1667   0.9091   0.8462
  0.1667   0.9091   0.9231
  0.3333   0.0000   0.0000
  0.3333   0.0000   0.0769
  0.3333   0.0000   0.1538
  0.3333   0.0000   0.2308
  0.3333   0.0000   0.3077
  0.3333   0.0000   0.3846
  0.3333   0.0000   0.4615
  0.3333   0.0000   0.5385
  0.3333   0.0000   0.6154
  0.3333   0.0000   0.6923
  0.3333   0.0000   0.7692
  0.3333   0.0000   0.8462
  0.3333   0.0000   0.9231
  0.3333   0.0909   0.0000
  0.3333   0.0909   0.0769
  0.3333   0.0909   0.1538
  0.3333   0.0909   0.2308
  0.3333   0.0909   0.3077
  0.3333   0.0909   0.3846
  0.3333   0.0909   0.4615
  0.3333   0.0909   0.5385
  0.3333   0.0909   0.6154
  0.3333   0.0909   0.6923
  0.3333   0.0909   0.7692
  0.3333   0.0909   0.8462
  0.3333   0.0909   0.9231
  0.3333   0.1818   0.0000
  0.3333   0.1818   0.0769
  0.3333   0.1818   0.1538
  0.3333   0.1818   0.2308
  0.3333   0.1818   0.3077
  0.3333   0.1818   0.3846
  0.3333   0.1818   0.4615
  0.3333   0.1818   0.5385
  0.3333   0.1818   0.6154
  0.3333   0.1818   0.6923
  0.3333   0.1818   0.7692
  0.3333   0.1818   0.8462
  0.3333   0.1818   0.9231
  0.3333   0.2727   0.0000
  0.3333   0.2727   0.0769
  0.3333   0.2727   0.1538
  0.3333   0.2727   0.2308
  0.3333   0.2727   0.3077
  0.3333   0.2727   0.3846
  0.3333   0.2727   0.4615
  0.3333   0.2727   0.5385
  0.3333   0.2727   0.6154
  0.3333   0.2727   0.6923
  0.3333   0.2727   0.7692
  0.3333   0.2727   0.8462
  0.3333   0.2727   0.9231
  0.3333   0.3636   0.0000
  0.3333   0.3636   0.0769
  0.3333   0.3636   0.1538
  0.3333   0.3636   0.2308
  0.3333   0.3636   0.3077
  0.3333   0.3636   0.3846
  0.3333   0.3636   0.4615
  0.3333   0.3636   0.5385
  0.3333   0.3636   0.6154
  0.3333   0.3636   0.6923
  0.3333   0.3636   0.7692
  0.3333   0.3636   0.8462
  0.3333   0.3636   0.9231
  0.3333   0.4545   0.0000
  0.3333   0.4545   0.0769
  0.3333   0.4545   0.1538
  0.3333   0.4545   0.2308
  0.3333   0.4545   0.3077
  0.3333   0.4545   0.3846
  0.3333   0.4545   0.4615
  0.3333   0.4545   0.5385
  0.3333   0.4545   0.6154
  0.3333   0.4545   0.6923
  0.3333   0.4545   0.7692
  0.3333   0.4545   0.8462
  0.3333   0.4545   0.9231
  0.3333   0.5455   0.0000
  0.3333   0.5455   0.0769
  0.3333   0.5455   0.1538
  0.3333   0.5455   0.2308
  0.3333   0.5455   0.3077
  0.3333   0.5455   0.3846
  0.3333   0.5455   0.4615
  0.3333   0.5455   0.5385
  0.3333   0.5455   0.6154
  0.3333   0.5455   0.6923
  0.3333   0.5455   0.7692
  0.3333   0.5455   0.8462
  0.3333   0.5455   0.9231
  0.3333   0.6364   0.0000
  0.3333   0.6364   0.0769
  0.3333   0.6364   0.1538
  0.3333   0.6364   0.2308
  0.3333   0.6364   0.3077
  0.3333   0.6364   0.3846
  0.3333   0.6364   0.4615
  0.3333   0.6364   0.5385
  0.3333   0.6364   0.6154
  0.3333   0.6364   0.6923
  0.3333   0.6364   0.7692
  0.3333   0.6364   0.8462
  0.3333   0.6364   0.9231
  0.3333   0.7273   0.0000
  0.3333   0.7273   0.0769
  0.3333   0.7273   0.1538
  0.3333   0.7273   0.2308
  0.3333   0.7273   0.3077
  0.3333   0.7273   0.3846
  0.3333   0.7273   0.4615
  0.3333   0.7273   0.5385
  0.3333   0.7273   0.6154
  0.3333   0.7273   0.6923
  0.3333   0.7273   0.7692
  0.3333   0.7273   0.8462
  0.3333   0.7273   0.9231
  0.3333   0.8182   0.0000
  0.3333   0.8182   0.0769
  0.3333   0.8182   0.1538
  0.3333   0.8182   0.2308
  0.3333   0.8182   0.3077
  0.3333   0.8182   0.3846
  0.3333   0.8182   0.4615
  0.3333   0.8182   0.5385
  0.3333   0.8182   0.6154
  0.3333   0.8182   0.6923
  0.3333   0.8182   0.7692
  0.3333   0.8182   0.8462
  0.3333   0.8182   0.9231
  0.3333   0.9091   0.0000
  0.3333   0.9091   0.0769
  0.3333   0.9091   0.1538
  0.3333   0.9091   0.2308
  0.3333   0.9091   0.3077
  0.3333   0.9091   0.3846
  0.3333   0.9091   0.4615
  0.3333   0.9091   0.5385
  0.3333   0.9091   0.6154
  0.3333   0.9091   0.6923
  0.3333   0.9091   0.7692
  0.3333   0.9091   0.8462
  0.3333   0.9091   0.9231
  0.5000   0.0000   0.0000
  0.5000   0.0000   0.0769
  0.5000   0.0000   0.1538
  0.5000   0.0000   0.2308
  0.5000   0.0000   0.3077
  0.5000   0.0000   0.3846
  0.5000   0.0000   0.4615
  0.5000   0.0000   0.5385
  0.5000   0.0000   0.6154
  0.5000   0.0000   0.6923
  0.5000   0.0000   0.7692
  0.5000   0.0000   0.8462
  0.5000   0.0000   0.9231
  0.5000   0.0909   0.0000
  0.5000   0.0909   0.0769
  0.5000   0.0909   0.1538
  0.5000   0.0909   0.2308
  0.5000   0.0909   0.3077
  0.5000   0.0909   0.3846
  0.5000   0.0909   0.4615
  0.5000   0.0909   0.5385
  0.5000   0.0909   0.6154
  0.5000   0.0909   0.6923
  0.5000   0.0909   0.7692
  0.5000   0.0909   0.8462
  0.5000   0.0909   0.9231
  0.5000   0.1818   0.0000
  0.5000   0.1818   0.0769
  0.5000   0.1818   0.1538
  0.5000   0.1818   0.2308
  0.5000   0.1818   0.3077
  0.5000   0.1818   0.3846
  0.5000   0.1818   0.4615
  0.5000   0.1818   0.5385
  0.5000   0.1818   0.6154
  0.5000   0.1818   0.6923
  0.5000   0.1818   0.7692
  0.5000   0.1818   0.8462
  0.5000   0.1818   0.9231
  0.5000   0.2727   0.0000
  0.5000   0.2727   0.0769
  0.5000   0.2727   0.1538
  0.5000   0.2727   0.2308
  0.5000   0.2727   0.3077
  0.5000   0.2727   0.3846
  0.5000   0.2727   0.4615
  0.5000   0.2727   0.5385
  0.5000   0.2727   0.6154
  0.5000   0.2727   0.6923
  0.5000   0.2727   0.7692
  0.5000   0.2727   0.8462
  0.5000   0.2727   0.9231
  0.5000   0.3636   0.0000
  0.5000   0.3636   0.0769
  0.5000   0.3636   0.1538
  0.5000   0.3636   0.2308
  0.5000   0.3636   0.3077
  0.5000   0.3636   0.3846
  0.5000   0.3636   0.4615
  0.5000   0.3636   0.5385
  0.5000   0.3636   0.6154
  0.5000   0.3636   0.6923
  0.5000   0.3636   0.7692
  0.5000   0.3636   0.8462
  0.5000   0.3636   0.9231
  0.5000   0.4545   0.0000
  0.5000   0.4545   0.0769
  0.5000   0.4545   0.1538
  0.5000   0.4545   0.2308
  0.5000   0.4545   0.3077
  0.5000   0.4545   0.3846
  0.5000   0.4545   0.4615
  0.5000   0.4545   0.5385
  0.5000   0.4545   0.6154
  0.5000   0.4545   0.6923
  0.5000   0.4545   0.7692
  0.5000   0.4545   0.8462
  0.5000   0.4545   0.9231
  0.5000   0.5455   0.0000
  0.5000   0.5455   0.0769
  0.5000   0.5455   0.1538
  0.5000   0.5455   0.2308
  0.5000   0.5455   0.3077
  0.5000   0.5455   0.3846
  0.5000   0.5455   0.4615
  0.5000   0.5455   0.5385
  0.5000   0.5455   0.6154
  0.5000   0.5455   0.6923
  0.5000   0.5455   0.7692
  0.5000   0.5455   0.8462
  0.5000   0.5455   0.9231
  0.5000   0.6364   0.0000
  0.5000   0.6364   0.0769
  0.5000   0.6364   0.1538
  0.5000   0.6364   0.2308
  0.5000   0.6364   0.3077
  0.5000   0.6364   0.3846
  0.5000   0.6364   0.4615
  0.5000   0.6364   0.5385
  0.5000   0.6364   0.6154
  0.5000   0.6364   0.6923
  0.5000   0.6364   0.7692
  0.5000   0.6364   0.8462
  0.5000   0.6364   0.9231
  0.5000   0.7273   0.0000
  0.5000   0.7273   0.0769
  0.5000   0.7273   0.1538
  0.5000   0.7273   0.2308
  0.5000   0.7273   0.3077
  0.5000   0.7273   0.3846
  0.5000   0.7273   0.4615
  0.5000   0.7273   0.5385
  0.5000   0.7273   0.6154
  0.5000   0.7273   0.6923
  0.5000   0.7273   0.7692
  0.5000   0.7273   0.8462
  0.5000   0.7273   0.9231
  0.5000   0.8182   0.0000
  0.5000   0.8182   0.0769
  0.5000   0.8182   0.1538
  0.5000   0.8182   0.2308
  0.5000   0.8182   0.3077
  0.5000   0.8182   0.3846
  0.5000   0.8182   0.4615
  0.5000   0.8182   0.5385
  0.5000   0.8182   0.6154
  0.5000   0.8182   0.6923
  0.5000   0.8182   0.7692
  0.5000   0.8182   0.8462
  0.5000   0.8182   0.9231
  0.5000   0.9091   0.0000
  0.5000   0.9091   0.0769
  0.5000   0.9091   0.1538
  0.5000   0.9091   0.2308
  0.5000   0.9091   0.3077
  0.5000   0.9091   0.3846
  0.5000   0.9091   0.4615
  0.5000   0.9091   0.5385
  0.5000   0.9091   0.6154
  0.5000   0.9091   0.6923
  0.5000   0.9091   0.7692
  0.5000   0.9091   0.8462
  0.5000   0.9091   0.9231
  0.6667   0.0000   0.0000
  0.6667   0.0000   0.0769
  0.6667   0.0000   0.1538
  0.6667   0.0000   0.2308
  0.6667   0.0000   0.3077
  0.6667   0.0000   0.3846
  0.6667   0.0000   0.4615
  0.6667   0.0000   0.5385
  0.6667   0.0000   0.6154
  0.6667   0.0000   0.6923
  0.6667   0.0000   0.7692
  0.6667   0.0000   0.8462
  0.6667   0.0000   0.9231
  0.6667   0.0909   0.0000
  0.6667   0.0909   0.0769
  0.6667   0.0909   0.1538
  0.6667   0.0909   0.2308
  0.6667   0.0909   0.3077
  0.6667   0.0909   0.3846
  0.6667   0.0909   0.4615
  0.6667   0.0909   0.5385
  0.6667   0.0909   0.6154
  0.6667   0.0909   0.6923
  0.6667   0.0909   0.7692
  0.6667   0.0909   0.8462
  0.6667   0.0909   0.9231
  0.6667   0.1818   0.0000
  0.6667   0.1818   0.0769
  0.6667   0.1818   0.1538
  0.6667   0.1818   0.2308
  0.6667   0.1818   0.3077
  0.6667   0.1818   0.3846
  0.6667   0.1818   0.4615
  0.6667   0.1818   0.5385
  0.6667   0.1818   0.6154
  0.6667   0.1818   0.6923
  0.6667   0.1818   0.7692
  0.6667   0.1818   0.8462
  0.6667   0.1818   0.9231
  0.6667   0.2727   0.0000
  0.6667   0.2727   0.0769
  0.6667   0.2727   0.1538
  0.6667   0.2727   0.2308
  0.6667   0.2727   0.3077
  0.6667   0.2727   0.3846
  0.6667   0.2727   0.4615
  0.6667   0.2727   0.5385
  0.6667   0.2727   0.6154
  0.6667   0.2727   0.6923
  0.6667   0.2727   0.7692
  0.6667   0.2727   0.8462
  0.6667   0.2727   0.9231
  0.6667   0.3636   0.0000
  0.6667   0.3636   0.0769
  0.6667   0.3636   0.1538
  0.6667   0.3636   0.2308
  0.6667   0.3636   0.3077
  0.6667   0.3636   0.3846
  0.6667   0.3636   0.4615
  0.6667   0.3636   0.5385
  0.6667   0.3636   0.6154
  0.6667   0.3636   0.6923
  0.6667   0.3636   0.7692
  0.6667   0.3636   0.8462
  0.6667   0.3636   0.9231
  0.6667   0.4545   0.0000
  0.6667   0.4545   0.0769
  0.6667   0.4545   0.1538
  0.6667   0.4545   0.2308
  0.6667   0.4545   0.3077
  0.6667   0.4545   0.3846
  0.6667   0.4545   0.4615
  0.6667   0.4545   0.5385
  0.6667   0.4545   0.6154
  0.6667   0.4545   0.6923
  0.6667   0.4545   0.7692
  0.6667   0.4545   0.8462
  0.6667   0.4545   0.9231
  0.6667   0.5455   0.0000
  0.6667   0.5455   0.0769
  0.6667   0.5455   0.1538
  0.6667   0.5455   0.2308
  0.6667   0.5455   0.3077
  0.6667   0.5455   0.3846
  0.6667   0.5455   0.4615
  0.6667   0.5455   0.5385
  0.6667   0.5455   0.6154
  0.6667   0.5455   0.6923
  0.6667   0.5455   0.7692
  0.6667   0.5455   0.8462
  0.6667   0.5455   0.9231
  0.6667   0.6364   0.0000
  0.6667   0.6364   0.0769
  0.6667   0.6364   0.1538
  0.6667   0.6364   0.2308
  0.6667   0.6364   0.3077
  0.6667   0.6364   0.3846
  0.6667   0.6364   0.4615
  0.6667   0.6364   0.5385
  0.6667   0.6364   0.6154
  0.6667   0.6364   0.6923
  0.6667   0.6364   0.7692
  0.6667   0.6364   0.8462
  0.6667   0.6364   0.9231
  0.6667   0.7273   0.0000
  0.6667   0.7273   0.0769
  0.6667   0.7273   0.1538
  0.6667   0.7273   0.2308
  0.6667   0.7273   0.3077
  0.6667   0.7273   0.3846
  0.6667   0.7273   0.4615
  0.6667   0.7273   0.5385
  0.6667   0.7273   0.6154
  0.6667   0.7273   0.6923
  0.6667   0.7273   0.7692
  0.6667   0.7273   0.8462
  0.6667   0.7273   0.9231
  0.6667   0.8182   0.0000
  0.6667   0.8182   0.0769
  0.6667   0.8182   0.1538
  0.6667   0.8182   0.2308
  0.6667   0.8182   0.3077
  0.6667   0.8182   0.3846
  0.6667   0.8182   0.4615
  0.6667   0.8182   0.5385
  0.6667   0.8182   0.6154
  0.6667   0.8182   0.6923
  0.6667   0.8182   0.7692
  0.6667   0.8182   0.8462
  0.6667   0.8182   0.9231
  0.6667   0.9091   0.0000
  0.6667   0.9091   0.0769
  0.6667   0.9091   0.1538
  0.6667   0.9091   0.2308
  0.6667   0.9091   0.3077
  0.6667   0.9091   0.3846
  0.6667   0.9091   0.4615
  0.6667   0.9091   0.5385
  0.6667   0.9091   0.6154
  0.6667   0.9091   0.6923
  0.6667   0.9091   0.7692
  0.6667   0.9091   0.8462
  0.6667   0.9091   0.9231
  0.8333   0.0000   0.0000
  0.8333   0.0000   0.0769
  0.8333   0.0000   0.1538
  0.8333   0.0000   0.2308
  0.8333   0.0000   0.3077
  0.8333   0.0000   0.3846
  0.8333   0.0000   0.4615
  0.8333   0.0000   0.5385
  0.8333   0.0000   0.6154
  0.8333   0.0000   0.6923
  0.8333   0.0000   0.7692
  0.8333   0.0000   0.8462
  0.8333   0.0000   0.9231
  0.8333   0.0909   0.0000
  0.8333   0.0909   0.0769
  0.8333   0.0909   0.1538
  0.8333   0.0909   0.2308
  0.8333   0.0909   0.3077
  0.8333   0.0909   0.3846
  0.8333   0.0909   0.4615
  0.8333   0.0909   0.5385
  0.8333   0.0909   0.6154
  0.8333   0.0909   0.6923
  0.8333   0.0909   0.7692
  0.8333   0.0909   0.8462
  0.8333   0.0909   0.9231
  0.8333   0.1818   0.0000
  0.8333   0.1818   0.0769
  0.8333   0.1818   0.1538
  0.8333   0.1818   0.2308
  0.8333   0.1818   0.3077
  0.8333   0.1818   0.3846
  0.8333   0.1818   0.4615
  0.8333   0.1818   0.5385
  0.8333   0.1818   0.6154
  0.8333   0.1818   0.6923
  0.8333   0.1818   0.7692
  0.8333   0.1818   0.8462
  0.8333   0.1818   0.9231
  0.8333   0.2727   0.0000
  0.8333   0.2727   0.0769
  0.8333   0.2727   0.1538
  0.8333   0.2727   0.2308
  0.8333   0.2727   0.3077
  0.8333   0.2727   0.3846
  0.8333   0.2727   0.4615
  0.8333   0.2727   0.5385
  0.8333   0.2727   0.6154
  0.8333   0.2727   0.6923
  0.8333   0.2727   0.7692
  0.8333   0.2727   0.8462
  0.8333   0.2727   0.9231
  0.8333   0.3636   0.0000
  0.8333   0.3636   0.0769
  0.8333   0.3636   0.1538
  0.8333   0.3636   0.2308
  0.8333   0.3636   0.3077
  0.8333   0.3636   0.3846
  0.8333   0.3636   0.4615
  0.8333   0.3636   0.5385
  0.8333   0.3636   0.6154
  0.8333   0.3636   0.6923
  0.8333   0.3636   0.7692
  0.8333   0.3636   0.8462
  0.8333   0.3636   0.9231
  0.8333   0.4545   0.0000
  0.8333   0.4545   0.0769
  0.8333   0.4545   0.1538
  0.8333   0.4545   0.2308
  0.8333   0.4545   0.3077
  0.8333   0.4545   0.3846
  0.8333   0.4545   0.4615
  0.8333   0.4545   0.5385
  0.8333   0.4545   0.6154
  0.8333   0.4545   0.6923
  0.8333   0.4545   0.7692
  0.8333   0.4545   0.8462
  0.8333   0.4545   0.9231
  0.8333   0.5455   0.0000
  0.8333   0.5455   0.0769
  0.8333   0.5455   0.1538
  0.8333   0.5455   0.2308
  0.8333   0.5455   0.3077
  0.8333   0.5455   0.3846
  0.8333   0.5455   0.4615
  0.8333   0.5455   0.5385
  0.8333   0.5455   0.6154
  0.8333   0.5455   0.6923
  0.8333   0.5455   0.7692
  0.8333   0.5455   0.8462
  0.8333   0.5455   0.9231
  0.8333   0.6364   0.0000
  0.8333   0.6364   0.0769
  0.8333   0.6364   0.1538
  0.8333   0.6364   0.2308
  0.8333   0.6364   0.3077
  0.8333   0.6364   0.3846
  0.8333   0.6364   0.4615
  0.8333   0.6364   0.5385
  0.8333   0.6364   0.6154
  0.8333   0.6364   0.6923
  0.8333   0.6364   0.7692
  0.8333   0.6364   0.8462
  0.8333   0.6364   0.9231
  0.8333   0.7273   0.0000
  0.8333   0.7273   0.0769
  0.8333   0.7273   0.1538
  0.8333   0.7273   0.2308
  0.8333   0.7273   0.3077
  0.8333   0.7273   0.3846
  0.8333   0.7273   0.4615
  0.8333   0.7273   0.5385
  0.8333   0.7273   0.6154
  0.8333   0.7273   0.6923
  0.8333   0.7273   0.7692
  0.8333   0.7273   0.8462
  0.8333   0.7273   0.9231
  0.8333   0.8182   0.0000
  0.8333   0.8182   0.0769
  0.8333   0.8182   0.1538
  0.8333   0.8182   0.2308
  0.8333   0.8182   0.3077
  0.8333   0.8182   0.3846
  0.8333   0.8182   0.4615
  0.8333   0.8182   0.5385
  0.8333   0.8182   0.6154
  0.8333   0.8182   0.6923
  0.8333   0.8182   0.7692
  0.8333   0.8182   0.8462
  0.8333   0.8182   0.9231
  0.8333   0.9091   0.0000
  0.8333   0.9091   0.0769
  0.8333   0.9091   0.1538
  0.8333   0.9091   0.2308
  0.8333   0.9091   0.3077
  0.8333   0.9091   0.3846
  0.8333   0.9091   0.4615
  0.8333   0.9091   0.5385
  0.8333   0.9091   0.6154
  0.8333   0.9091   0.6923
  0.8333   0.9091   0.7692
  0.8333   0.9091   0.8462
  0.8333   0.9091   0.9231