Zn2 Ga2 N2 O2
1
  4.8470   0.0000   0.0000
  0.3655   4.9024   0.0000
  0.0369   0.5785   4.9549
Zn Ga N O
2 2 2 2
Direct
0.7778 0.4444 0.5556
0.2222 0.5556 0.0
0.2222 0.0 0.5556
0.7778 0.0 0.0
0.0 0.7778 0.7778
0.0 0.2222 0.2222
0.5556 0.2222 0.7778
0.4444 0.7778 0.2222