E = -1
1
  3.5294   0.2688   0.6153
  0.3316   3.3636   0.4500
  0.3915   0.1299   9.6050
H
798
Direct
  0.0000   0.0000   0.0000
  0.0000   0.0000   0.0526
  0.0000   0.0000   0.1053
  0.0000   0.0000   0.1579
  0.0000   0.0000   0.2105
  0.0000   0.0000   0.2632
  0.0000   0.0000   0.3158
  0.0000   0.0000   0.3684
  0.0000   0.0000   0.4211
  0.0000   0.0000   0.4737
  0.0000   0.0000   0.5263
  0.0000   0.0000   0.5789
  0.0000   0.0000   0.6316
  0.0000   0.0000   0.6842
  0.0000   0.0000   0.7368
  0.0000   0.0000   0.7895
  0.0000   0.0000   0.8421
  0.0000   0.0000   0.8947
  0.0000   0.0000   0.9474
  0.0000   0.1667   0.0000
  0.0000   0.1667   0.0526
  0.0000   0.1667   0.1053
  0.0000   0.1667   0.1579
  0.0000   0.1667   0.2105
  0.0000   0.1667   0.2632
  0.0000   0.1667   0.3158
  0.0000   0.1667   0.3684
  0.0000   0.1667   0.4211
  0.0000   0.1667   0.4737
  0.0000   0.1667   0.5263
  0.0000   0.1667   0.5789
  0.0000   0.1667   0.6316
  0.0000   0.1667   0.6842
  0.0000   0.1667   0.7368
  0.0000   0.1667   0.7895
  0.0000   0.1667   0.8421
  0.0000   0.1667   0.8947
  0.0000   0.1667   0.9474
  0.0000   0.3333   0.0000
  0.0000   0.3333   0.0526
  0.0000   0.3333   0.1053
  0.0000   0.3333   0.1579
  0.0000   0.3333   0.2105
  0.0000   0.3333   0.2632
  0.0000   0.3333   0.3158
  0.0000   0.3333   0.3684
  0.0000   0.3333   0.4211
  0.0000   0.3333   0.4737
  0.0000   0.3333   0.5263
  0.0000   0.3333   0.5789
  0.0000   0.3333   0.6316
  0.0000   0.3333   0.6842
  0.0000   0.3333   0.7368
  0.0000   0.3333   0.7895
  0.0000   0.3333   0.8421
  0.0000   0.3333   0.8947
  0.0000   0.3333   0.9474
  0.0000   0.5000   0.0000
  0.0000   0.5000   0.0526
  0.0000   0.5000   0.1053
  0.0000   0.5000   0.1579
  0.0000   0.5000   0.2105
  0.0000   0.5000   0.2632
  0.0000   0.5000   0.3158
  0.0000   0.5000   0.3684
  0.0000   0.5000   0.4211
  0.0000   0.5000   0.4737
  0.0000   0.5000   0.5263
  0.0000   0.5000   0.5789
  0.0000   0.5000   0.6316
  0.0000   0.5000   0.6842
  0.0000   0.5000   0.7368
  0.0000   0.5000   0.7895
  0.0000   0.5000   0.8421
  0.0000   0.5000   0.8947
  0.0000   0.5000   0.9474
  0.0000   0.6667   0.0000
  0.0000   0.6667   0.0526
  0.0000   0.6667   0.1053
  0.0000   0.6667   0.1579
  0.0000   0.6667   0.2105
  0.0000   0.6667   0.2632
  0.0000   0.6667   0.3158
  0.0000   0.6667   0.3684
  0.0000   0.6667   0.4211
  0.0000   0.6667   0.4737
  0.0000   0.6667   0.5263
  0.0000   0.6667   0.5789
  0.0000   0.6667   0.6316
  0.0000   0.6667   0.6842
  0.0000   0.6667   0.7368
  0.0000   0.6667   0.7895
  0.0000   0.6667   0.8421
  0.0000   0.6667   0.8947
  0.0000   0.6667   0.9474
  0.0000   0.8333   0.0000
  0.0000   0.8333   0.0526
  0.0000   0.8333   0.1053
  0.0000   0.8333   0.1579
  0.0000   0.8333   0.2105
  0.0000   0.8333   0.2632
  0.0000   0.8333   0.3158
  0.0000   0.8333   0.3684
  0.0000   0.8333   0.4211
  0.0000   0.8333   0.4737
  0.0000   0.8333   0.5263
  0.0000   0.8333   0.5789
  0.0000   0.8333   0.6316
  0.0000   0.8333   0.6842
  0.0000   0.8333   0.7368
  0.0000   0.8333   0.7895
  0.0000   0.8333   0.8421
  0.0000   0.8333   0.8947
  0.0000   0.8333   0.9474
  0.1429   0.0000   0.0000
  0.1429   0.0000   0.0526
  0.1429   0.0000   0.1053
  0.1429   0.0000   0.1579
  0.1429   0.0000   0.2105
  0.1429   0.0000   0.2632
  0.1429   0.0000   0.3158
  0.1429   0.0000   0.3684
  0.1429   0.0000   0.4211
  0.1429   0.0000   0.4737
  0.1429   0.0000   0.5263
  0.1429   0.0000   0.5789
  0.1429   0.0000   0.6316
  0.1429   0.0000   0.6842
  0.1429   0.0000   0.7368
  0.1429   0.0000   0.7895
  0.1429   0.0000   0.8421
  0.1429   0.0000   0.8947
  0.1429   0.0000   0.9474
  0.1429   0.1667   0.0000
  0.1429   0.1667   0.0526
  0.1429   0.1667   0.1053
  0.1429   0.1667   0.1579
  0.1429   0.1667   0.2105
  0.1429   0.1667   0.2632
  0.1429   0.1667   0.3158
  0.1429   0.1667   0.3684
  0.1429   0.1667   0.4211
  0.1429   0.1667   0.4737
  0.1429   0.1667   0.5263
  0.1429   0.1667   0.5789
  0.1429   0.1667   0.6316
  0.1429   0.1667   0.6842
  0.1429   0.1667   0.7368
  0.1429   0.1667   0.7895
  0.1429   0.1667   0.8421
  0.1429   0.1667   0.8947
  0.1429   0.1667   0.9474
  0.1429   0.3333   0.0000
  0.1429   0.3333   0.0526
  0.1429   0.3333   0.1053
  0.1429   0.3333   0.1579
  0.1429   0.3333   0.2105
  0.1429   0.3333   0.2632
  0.1429   0.3333   0.3158
  0.1429   0.3333   0.3684
  0.1429   0.3333   0.4211
  0.1429   0.3333   0.4737
  0.1429   0.3333   0.5263
  0.1429   0.3333   0.5789
  0.1429   0.3333   0.6316
  0.1429   0.3333   0.6842
  0.1429   0.3333   0.7368
  0.1429   0.3333   0.7895
  0.1429   0.3333   0.8421
  0.1429   0.3333   0.8947
  0.1429   0.3333   0.9474
  0.1429   0.5000   0.0000
  0.1429   0.5000   0.0526
  0.1429   0.5000   0.1053
  0.1429   0.5000   0.1579
  0.1429   0.5000   0.2105
  0.1429   0.5000   0.2632
  0.1429   0.5000   0.3158
  0.1429   0.5000   0.3684
  0.1429   0.5000   0.4211
  0.1429   0.5000   0.4737
  0.1429   0.5000   0.5263
  0.1429   0.5000   0.5789
  0.1429   0.5000   0.6316
  0.1429   0.5000   0.6842
  0.1429   0.5000   0.7368
  0.1429   0.5000   0.7895
  0.1429   0.5000   0.8421
  0.1429   0.5000   0.8947
  0.1429   0.5000   0.9474
  0.1429   0.6667   0.0000
  0.1429   0.6667   0.0526
  0.1429   0.6667   0.1053
  0.1429   0.6667   0.1579
  0.1429   0.6667   0.2105
  0.1429   0.6667   0.2632
  0.1429   0.6667   0.3158
  0.1429   0.6667   0.3684
  0.1429   0.6667   0.4211
  0.1429   0.6667   0.4737
  0.1429   0.6667   0.5263
  0.1429   0.6667   0.5789
  0.1429   0.6667   0.6316
  0.1429   0.6667   0.6842
  0.1429   0.6667   0.7368
  0.1429   0.6667   0.7895
  0.1429   0.6667   0.8421
  0.1429   0.6667   0.8947
  0.1429   0.6667   0.9474
  0.1429   0.8333   0.0000
  0.1429   0.8333   0.0526
  0.1429   0.8333   0.1053
  0.1429   0.8333   0.1579
  0.1429   0.8333   0.2105
  0.1429   0.8333   0.2632
  0.1429   0.8333   0.3158
  0.1429   0.8333   0.3684
  0.1429   0.8333   0.4211
  0.1429   0.8333   0.4737
  0.1429   0.8333   0.5263
  0.1429   0.8333   0.5789
  0.1429   0.8333   0.6316
  0.1429   0.8333   0.6842
  0.1429   0.8333   0.7368
  0.1429   0.8333   0.7895
  0.1429   0.8333   0.8421
  0.1429   0.8333   0.8947
  0.1429   0.8333   0.9474
  0.2857   0.0000   0.0000
  0.2857   0.0000   0.0526
  0.2857   0.0000   0.1053
  0.2857   0.0000   0.1579
  0.2857   0.0000   0.2105
  0.2857   0.0000   0.2632
  0.2857   0.0000   0.3158
  0.2857   0.0000   0.3684
  0.2857   0.0000   0.4211
  0.2857   0.0000   0.4737
  0.2857   0.0000   0.5263
  0.2857   0.0000   0.5789
  0.2857   0.0000   0.6316
  0.2857   0.0000   0.6842
  0.2857   0.0000   0.7368
  0.2857   0.0000   0.7895
  0.2857   0.0000   0.8421
  0.2857   0.0000   0.8947
  0.2857   0.0000   0.9474
  0.2857   0.1667   0.0000
  0.2857   0.1667   0.0526
  0.2857   0.1667   0.1053
  0.2857   0.1667   0.1579
  0.2857   0.1667   0.2105
  0.2857   0.1667   0.2632
  0.2857   0.1667   0.3158
  0.2857   0.1667   0.3684
  0.2857   0.1667   0.4211
  0.2857   0.1667   0.4737
  0.2857   0.1667   0.5263
  0.2857   0.1667   0.5789
  0.2857   0.1667   0.6316
  0.2857   0.1667   0.6842
  0.2857   0.1667   0.7368
  0.2857   0.1667   0.7895
  0.2857   0.1667   0.8421
  0.2857   0.1667   0.8947
  0.2857   0.1667   0.9474
  0.2857   0.3333   0.0000
  0.2857   0.3333   0.0526
  0.2857   0.3333   0.1053
  0.2857   0.3333   0.1579
  0.2857   0.3333   0.2105
  0.2857   0.3333   0.2632
  0.2857   0.3333   0.3158
  0.2857   0.3333   0.3684
  0.2857   0.3333   0.4211
  0.2857   0.3333   0.4737
  0.2857   0.3333   0.5263
  0.2857   0.3333   0.5789
  0.2857   0.3333   0.6316
  0.2857   0.3333   0.6842
  0.2857   0.3333   0.7368
  0.2857   0.3333   0.7895
  0.2857   0.3333   0.8421
  0.2857   0.3333   0.8947
  0.2857   0.3333   0.9474
  0.2857   0.5000   0.0000
  0.2857   0.5000   0.0526
  0.2857   0.5000   0.1053
  0.2857   0.5000   0.1579
  0.2857   0.5000   0.2105
  0.2857   0.5000   0.2632
  0.2857   0.5000   0.3158
  0.2857   0.5000   0.3684
  0.2857   0.5000   0.4211
  0.2857   0.5000   0.4737
  0.2857   0.5000   0.5263
  0.2857   0.5000   0.5789
  0.2857   0.5000   0.6316
  0.2857   0.5000   0.6842
  0.2857   0.5000   0.7368
  0.2857   0.5000   0.7895
  0.2857   0.5000   0.8421
  0.2857   0.5000   0.8947
  0.2857   0.5000   0.9474
  0.2857   0.6667   0.0000
  0.2857   0.6667   0.0526
  0.2857   0.6667   0.1053
  0.2857   0.6667   0.1579
  0.2857   0.6667   0.2105
  0.2857   0.6667   0.2632
  0.2857   0.6667   0.3158
  0.2857   0.6667   0.3684
  0.2857   0.6667   0.4211
  0.2857   0.6667   0.4737
  0.2857   0.6667   0.5263
  0.2857   0.6667   0.5789
  0.2857   0.6667   0.6316
  0.2857   0.6667   0.6842
  0.2857   0.6667   0.7368
  0.2857   0.6667   0.7895
  0.2857   0.6667   0.8421
  0.2857   0.6667   0.8947
  0.2857   0.6667   0.9474
  0.2857   0.8333   0.0000
  0.2857   0.8333   0.0526
  0.2857   0.8333   0.1053
  0.2857   0.8333   0.1579
  0.2857   0.8333   0.2105
  0.2857   0.8333   0.2632
  0.2857   0.8333   0.3158
  0.2857   0.8333   0.3684
  0.2857   0.8333   0.4211
  0.2857   0.8333   0.4737
  0.2857   0.8333   0.5263
  0.2857   0.8333   0.5789
  0.2857   0.8333   0.6316
  0.2857   0.8333   0.6842
  0.2857   0.8333   0.7368
  0.2857   0.8333   0.7895
  0.2857   0.8333   0.8421
  0.2857   0.8333   0.8947
  0.2857   0.8333   0.9474
  0.4286   0.0000   0.0000
  0.4286   0.0000   0.0526
  0.4286   0.0000   0.1053
  0.4286   0.0000   0.1579
  0.4286   0.0000   0.2105
  0.4286   0.0000   0.2632
  0.4286   0.0000   0.3158
  0.4286   0.0000   0.3684
  0.4286   0.0000   0.4211
  0.4286   0.0000   0.4737
  0.4286   0.0000   0.5263
  0.4286   0.0000   0.5789
  0.4286   0.0000   0.6316
  0.4286   0.0000   0.6842
  0.4286   0.0000   0.7368
  0.4286   0.0000   0.7895
  0.4286   0.0000   0.8421
  0.4286   0.0000   0.8947
  0.4286   0.0000   0.9474
  0.4286   0.1667   0.0000
  0.4286   0.1667   0.0526
  0.4286   0.1667   0.1053
  0.4286   0.1667   0.1579
  0.4286   0.1667   0.2105
  0.4286   0.1667   0.2632
  0.4286   0.1667   0.3158
  0.4286   0.1667   0.3684
  0.4286   0.1667   0.4211
  0.4286   0.1667   0.4737
  0.4286   0.1667   0.5263
  0.4286   0.1667   0.5789
  0.4286   0.1667   0.6316
  0.4286   0.1667   0.6842
  0.4286   0.1667   0.7368
  0.4286   0.1667   0.7895
  0.4286   0.1667   0.8421
  0.4286   0.1667   0.8947
  0.4286   0.1667   0.9474
  0.4286   0.3333   0.0000
  0.4286   0.3333   0.0526
  0.4286   0.3333   0.1053
  0.4286   0.3333   0.1579
  0.4286   0.3333   0.2105
  0.4286   0.3333   0.2632
  0.4286   0.3333   0.3158
  0.4286   0.3333   0.3684
  0.4286   0.3333   0.4211
  0.4286   0.3333   0.4737
  0.4286   0.3333   0.5263
  0.4286   0.3333   0.5789
  0.4286   0.3333   0.6316
  0.4286   0.3333   0.6842
  0.4286   0.3333   0.7368
  0.4286   0.3333   0.7895
  0.4286   0.3333   0.8421
  0.4286   0.3333   0.8947
  0.4286   0.3333   0.9474
  0.4286   0.5000   0.0000
  0.4286   0.5000   0.0526
  0.4286   0.5000   0.1053
  0.4286   0.5000   0.1579
  0.4286   0.5000   0.2105
  0.4286   0.5000   0.2632
  0.4286   0.5000   0.3158
  0.4286   0.5000   0.3684
  0.4286   0.5000   0.4211
  0.4286   0.5000   0.4737
  0.4286   0.5000   0.5263
  0.4286   0.5000   0.5789
  0.4286   0.5000   0.6316
  0.4286   0.5000   0.6842
  0.4286   0.5000   0.7368
  0.4286   0.5000   0.7895
  0.4286   0.5000   0.8421
  0.4286   0.5000   0.8947
  0.4286   0.5000   0.9474
  0.4286   0.6667   0.0000
  0.4286   0.6667   0.0526
  0.4286   0.6667   0.1053
  0.4286   0.6667   0.1579
  0.4286   0.6667   0.2105
  0.4286   0.6667   0.2632
  0.4286   0.6667   0.3158
  0.4286   0.6667   0.3684
  0.4286   0.6667   0.4211
  0.4286   0.6667   0.4737
  0.4286   0.6667   0.5263
  0.4286   0.6667   0.5789
  0.4286   0.6667   0.6316
  0.4286   0.6667   0.6842
  0.4286   0.6667   0.7368
  0.4286   0.6667   0.7895
  0.4286   0.6667   0.8421
  0.4286   0.6667   0.8947
  0.4286   0.6667   0.9474
  0.4286   0.8333   0.0000
  0.4286   0.8333   0.0526
  0.4286   0.8333   0.1053
  0.4286   0.8333   0.1579
  0.4286   0.8333   0.2105
  0.4286   0.8333   0.2632
  0.4286   0.8333   0.3158
  0.4286   0.8333   0.3684
  0.4286   0.8333   0.4211
  0.4286   0.8333   0.4737
  0.4286   0.8333   0.5263
  0.4286   0.8333   0.5789
  0.4286   0.8333   0.6316
  0.4286   0.8333   0.6842
  0.4286   0.8333   0.7368
  0.4286   0.8333   0.7895
  0.4286   0.8333   0.8421
  0.4286   0.8333   0.8947
  0.4286   0.8333   0.9474
  0.5714   0.0000   0.0000
  0.5714   0.0000   0.0526
  0.5714   0.0000   0.1053
  0.5714   0.0000   0.1579
  0.5714   0.0000   0.2105
  0.5714   0.0000   0.2632
  0.5714   0.0000   0.3158
  0.5714   0.0000   0.3684
  0.5714   0.0000   0.4211
  0.5714   0.0000   0.4737
  0.5714   0.0000   0.5263
  0.5714   0.0000   0.5789
  0.5714   0.0000   0.6316
  0.5714   0.0000   0.6842
  0.5714   0.0000   0.7368
  0.5714   0.0000   0.7895
  0.5714   0.0000   0.8421
  0.5714   0.0000   0.8947
  0.5714   0.0000   0.9474
  0.5714   0.1667   0.0000
  0.5714   0.1667   0.0526
  0.5714   0.1667   0.1053
  0.5714   0.1667   0.1579
  0.5714   0.1667   0.2105
  0.5714   0.1667   0.2632
  0.5714   0.1667   0.3158
  0.5714   0.1667   0.3684
  0.5714   0.1667   0.4211
  0.5714   0.1667   0.4737
  0.5714   0.1667   0.5263
  0.5714   0.1667   0.5789
  0.5714   0.1667   0.6316
  0.5714   0.1667   0.6842
  0.5714   0.1667   0.7368
  0.5714   0.1667   0.7895
  0.5714   0.1667   0.8421
  0.5714   0.1667   0.8947
  0.5714   0.1667   0.9474
  0.5714   0.3333   0.0000
  0.5714   0.3333   0.0526
  0.5714   0.3333   0.1053
  0.5714   0.3333   0.1579
  0.5714   0.3333   0.2105
  0.5714   0.3333   0.2632
  0.5714   0.3333   0.3158
  0.5714   0.3333   0.3684
  0.5714   0.3333   0.4211
  0.5714   0.3333   0.4737
  0.5714   0.3333   0.5263
  0.5714   0.3333   0.5789
  0.5714   0.3333   0.6316
  0.5714   0.3333   0.6842
  0.5714   0.3333   0.7368
  0.5714   0.3333   0.7895
  0.5714   0.3333   0.8421
  0.5714   0.3333   0.8947
  0.5714   0.3333   0.9474
  0.5714   0.5000   0.0000
  0.5714   0.5000   0.0526
  0.5714   0.5000   0.1053
  0.5714   0.5000   0.1579
  0.5714   0.5000   0.2105
  0.5714   0.5000   0.2632
  0.5714   0.5000   0.3158
  0.5714   0.5000   0.3684
  0.5714   0.5000   0.4211
  0.5714   0.5000   0.4737
  0.5714   0.5000   0.5263
  0.5714   0.5000   0.5789
  0.5714   0.5000   0.6316
  0.5714   0.5000   0.6842
  0.5714   0.5000   0.7368
  0.5714   0.5000   0.7895
  0.5714   0.5000   0.8421
  0.5714   0.5000   0.8947
  0.5714   0.5000   0.9474
  0.5714   0.6667   0.0000
  0.5714   0.6667   0.0526
  0.5714   0.6667   0.1053
  0.5714   0.6667   0.1579
  0.5714   0.6667   0.2105
  0.5714   0.6667   0.2632
  0.5714   0.6667   0.3158
  0.5714   0.6667   0.3684
  0.5714   0.6667   0.4211
  0.5714   0.6667   0.4737
  0.5714   0.6667   0.5263
  0.5714   0.6667   0.5789
  0.5714   0.6667   0.6316
  0.5714   0.6667   0.6842
  0.5714   0.6667   0.7368
  0.5714   0.6667   0.7895
  0.5714   0.6667   0.8421
  0.5714   0.6667   0.8947
  0.5714   0.6667   0.9474
  0.5714   0.8333   0.0000
  0.5714   0.8333   0.0526
  0.5714   0.8333   0.1053
  0.5714   0.8333   0.1579
  0.5714   0.8333   0.2105
  0.5714   0.8333   0.2632
  0.5714   0.8333   0.3158
  0.5714   0.8333   0.3684
  0.5714   0.8333   0.4211
  0.5714   0.8333   0.4737
  0.5714   0.8333   0.5263
  0.5714   0.8333   0.5789
  0.5714   0.8333   0.6316
  0.5714   0.8333   0.6842
  0.5714   0.8333   0.7368
  0.5714   0.8333   0.7895
  0.5714   0.8333   0.8421
  0.5714   0.8333   0.8947
  0.5714   0.8333   0.9474
  0.7143   0.0000   0.0000
  0.7143   0.0000   0.0526
  0.7143   0.0000   0.1053
  0.7143   0.0000   0.1579
  0.7143   0.0000   0.2105
  0.7143   0.0000   0.2632
  0.7143   0.0000   0.3158
  0.7143   0.0000   0.3684
  0.7143   0.0000   0.4211
  0.7143   0.0000   0.4737
  0.7143   0.0000   0.5263
  0.7143   0.0000   0.5789
  0.7143   0.0000   0.6316
  0.7143   0.0000   0.6842
  0.7143   0.0000   0.7368
  0.7143   0.0000   0.7895
  0.7143   0.0000   0.8421
  0.7143   0.0000   0.8947
  0.7143   0.0000   0.9474
  0.7143   0.1667   0.0000
  0.7143   0.1667   0.0526
  0.7143   0.1667   0.1053
  0.7143   0.1667   0.1579
  0.7143   0.1667   0.2105
  0.7143   0.1667   0.2632
  0.7143   0.1667   0.3158
  0.7143   0.1667   0.3684
  0.7143   0.1667   0.4211
  0.7143   0.1667   0.4737
  0.7143   0.1667   0.5263
  0.7143   0.1667   0.5789
  0.7143   0.1667   0.6316
  0.7143   0.1667   0.6842
  0.7143   0.1667   0.7368
  0.7143   0.1667   0.7895
  0.7143   0.1667   0.8421
  0.7143   0.1667   0.8947
  0.7143   0.1667   0.9474
  0.7143   0.3333   0.0000
  0.7143   0.3333   0.0526
  0.7143   0.3333   0.1053
  0.7143   0.3333   0.1579
  0.7143   0.3333   0.2105
  0.7143   0.3333   0.2632
  0.7143   0.3333   0.3158
  0.7143   0.3333   0.3684
  0.7143   0.3333   0.4211
  0.7143   0.3333   0.4737
  0.7143   0.3333   0.5263
  0.7143   0.3333   0.5789
  0.7143   0.3333   0.6316
  0.7143   0.3333   0.6842
  0.7143   0.3333   0.7368
  0.7143   0.3333   0.7895
  0.7143   0.3333   0.8421
  0.7143   0.3333   0.8947
  0.7143   0.3333   0.9474
  0.7143   0.5000   0.0000
  0.7143   0.5000   0.0526
  0.7143   0.5000   0.1053
  0.7143   0.5000   0.1579
  0.7143   0.5000   0.2105
  0.7143   0.5000   0.2632
  0.7143   0.5000   0.3158
  0.7143   0.5000   0.3684
  0.7143   0.5000   0.4211
  0.7143   0.5000   0.4737
  0.7143   0.5000   0.5263
  0.7143   0.5000   0.5789
  0.7143   0.5000   0.6316
  0.7143   0.5000   0.6842
  0.7143   0.5000   0.7368
  0.7143   0.5000   0.7895
  0.7143   0.5000   0.8421
  0.7143   0.5000   0.8947
  0.7143   0.5000   0.9474
  0.7143   0.6667   0.0000
  0.7143   0.6667   0.0526
  0.7143   0.6667   0.1053
  0.7143   0.6667   0.1579
  0.7143   0.6667   0.2105
  0.7143   0.6667   0.2632
  0.7143   0.6667   0.3158
  0.7143   0.6667   0.3684
  0.7143   0.6667   0.4211
  0.7143   0.6667   0.4737
  0.7143   0.6667   0.5263
  0.7143   0.6667   0.5789
  0.7143   0.6667   0.6316
  0.7143   0.6667   0.6842
  0.7143   0.6667   0.7368
  0.7143   0.6667   0.7895
  0.7143   0.6667   0.8421
  0.7143   0.6667   0.8947
  0.7143   0.6667   0.9474
  0.7143   0.8333   0.0000
  0.7143   0.8333   0.0526
  0.7143   0.8333   0.1053
  0.7143   0.8333   0.1579
  0.7143   0.8333   0.2105
  0.7143   0.8333   0.2632
  0.7143   0.8333   0.3158
  0.7143   0.8333   0.3684
  0.7143   0.8333   0.4211
  0.7143   0.8333   0.4737
  0.7143   0.8333   0.5263
  0.7143   0.8333   0.5789
  0.7143   0.8333   0.6316
  0.7143   0.8333   0.6842
  0.7143   0.8333   0.7368
  0.7143   0.8333   0.7895
  0.7143   0.8333   0.8421
  0.7143   0.8333   0.8947
  0.7143   0.8333   0.9474
  0.8571   0.0000   0.0000
  0.8571   0.0000   0.0526
  0.8571   0.0000   0.1053
  0.8571   0.0000   0.1579
  0.8571   0.0000   0.2105
  0.8571   0.0000   0.2632
  0.8571   0.0000   0.3158
  0.8571   0.0000   0.3684
  0.8571   0.0000   0.4211
  0.8571   0.0000   0.4737
  0.8571   0.0000   0.5263
  0.8571   0.0000   0.5789
  0.8571   0.0000   0.6316
  0.8571   0.0000   0.6842
  0.8571   0.0000   0.7368
  0.8571   0.0000   0.7895
  0.8571   0.0000   0.8421
  0.8571   0.0000   0.8947
  0.8571   0.0000   0.9474
  0.8571   0.1667   0.0000
  0.8571   0.1667   0.0526
  0.8571   0.1667   0.1053
  0.8571   0.1667   0.1579
  0.8571   0.1667   0.2105
  0.8571   0.1667   0.2632
  0.8571   0.1667   0.3158
  0.8571   0.1667   0.3684
  0.8571   0.1667   0.4211
  0.8571   0.1667   0.4737
  0.8571   0.1667   0.5263
  0.8571   0.1667   0.5789
  0.8571   0.1667   0.6316
  0.8571   0.1667   0.6842
  0.8571   0.1667   0.7368
  0.8571   0.1667   0.7895
  0.8571   0.1667   0.8421
  0.8571   0.1667   0.8947
  0.8571   0.1667   0.9474
  0.8571   0.3333   0.0000
  0.8571   0.3333   0.0526
  0.8571   0.3333   0.1053
  0.8571   0.3333   0.1579
  0.8571   0.3333   0.2105
  0.8571   0.3333   0.2632
  0.8571   0.3333   0.3158
  0.8571   0.3333   0.3684
  0.8571   0.3333   0.4211
  0.8571   0.3333   0.4737
  0.8571   0.3333   0.5263
  0.8571   0.3333   0.5789
  0.8571   0.3333   0.6316
  0.8571   0.3333   0.6842
  0.8571   0.3333   0.7368
  0.8571   0.3333   0.7895
  0.8571   0.3333   0.8421
  0.8571   0.3333   0.8947
  0.8571   0.3333   0.9474
  0.8571   0.5000   0.0000
  0.8571   0.5000   0.0526
  0.8571   0.5000   0.1053
  0.8571   0.5000   0.1579
  0.8571   0.5000   0.2105
  0.8571   0.5000   0.2632
  0.8571   0.5000   0.3158
  0.8571   0.5000   0.3684
  0.8571   0.5000   0.4211
  0.8571   0.5000   0.4737
  0.8571   0.5000   0.5263
  0.8571   0.5000   0.5789
  0.8571   0.5000   0.6316
  0.8571   0.5000   0.6842
  0.8571   0.5000   0.7368
  0.8571   0.5000   0.7895
  0.8571   0.5000   0.8421
  0.8571   0.5000   0.8947
  0.8571   0.5000   0.9474
  0.8571   0.6667   0.0000
  0.8571   0.6667   0.0526
  0.8571   0.6667   0.1053
  0.8571   0.6667   0.1579
  0.8571   0.6667   0.2105
  0.8571   0.6667   0.2632
  0.8571   0.6667   0.3158
  0.8571   0.6667   0.3684
  0.8571   0.6667   0.4211
  0.8571   0.6667   0.4737
  0.8571   0.6667   0.5263
  0.8571   0.6667   0.5789
  0.8571   0.6667   0.6316
  0.8571   0.6667   0.6842
  0.8571   0.6667   0.7368
  0.8571   0.6667   0.7895
  0.8571   0.6667   0.8421
  0.8571   0.6667   0.8947
  0.8571   0.6667   0.9474
  0.8571   0.8333   0.0000
  0.8571   0.8333   0.0526
  0.8571   0.8333   0.1053
  0.8571   0.8333   0.1579
  0.8571   0.8333   0.2105
  0.8571   0.8333   0.2632
  0.8571   0.8333   0.3158
  0.8571   0.8333   0.3684
  0.8571   0.8333   0.4211
  0.8571   0.8333   0.4737
  0.8571   0.8333   0.5263
  0.8571   0.8333   0.5789
  0.8571   0.8333   0.6316
  0.8571   0.8333   0.6842
  0.8571   0.8333   0.7368
  0.8571   0.8333   0.7895
  0.8571   0.8333   0.8421
  0.8571   0.8333   0.8947
  0.8571   0.8333   0.9474