E = -1
1
  3.9712   0.1183   0.5143
  0.1300   3.4591   0.2635
  0.1947   0.0569   6.1088
H
576
Direct
  0.0000   0.0000   0.0000
  0.0000   0.0000   0.0833
  0.0000   0.0000   0.1667
  0.0000   0.0000   0.2500
  0.0000   0.0000   0.3333
  0.0000   0.0000   0.4167
  0.0000   0.0000   0.5000
  0.0000   0.0000   0.5833
  0.0000   0.0000   0.6667
  0.0000   0.0000   0.7500
  0.0000   0.0000   0.8333
  0.0000   0.0000   0.9167
  0.0000   0.1667   0.0000
  0.0000   0.1667   0.0833
  0.0000   0.1667   0.1667
  0.0000   0.1667   0.2500
  0.0000   0.1667   0.3333
  0.0000   0.1667   0.4167
  0.0000   0.1667   0.5000
  0.0000   0.1667   0.5833
  0.0000   0.1667   0.6667
  0.0000   0.1667   0.7500
  0.0000   0.1667   0.8333
  0.0000   0.1667   0.9167
  0.0000   0.3333   0.0000
  0.0000   0.3333   0.0833
  0.0000   0.3333   0.1667
  0.0000   0.3333   0.2500
  0.0000   0.3333   0.3333
  0.0000   0.3333   0.4167
  0.0000   0.3333   0.5000
  0.0000   0.3333   0.5833
  0.0000   0.3333   0.6667
  0.0000   0.3333   0.7500
  0.0000   0.3333   0.8333
  0.0000   0.3333   0.9167
  0.0000   0.5000   0.0000
  0.0000   0.5000   0.0833
  0.0000   0.5000   0.1667
  0.0000   0.5000   0.2500
  0.0000   0.5000   0.3333
  0.0000   0.5000   0.4167
  0.0000   0.5000   0.5000
  0.0000   0.5000   0.5833
  0.0000   0.5000   0.6667
  0.0000   0.5000   0.7500
  0.0000   0.5000   0.8333
  0.0000   0.5000   0.9167
  0.0000   0.6667   0.0000
  0.0000   0.6667   0.0833
  0.0000   0.6667   0.1667
  0.0000   0.6667   0.2500
  0.0000   0.6667   0.3333
  0.0000   0.6667   0.4167
  0.0000   0.6667   0.5000
  0.0000   0.6667   0.5833
  0.0000   0.6667   0.6667
  0.0000   0.6667   0.7500
  0.0000   0.6667   0.8333
  0.0000   0.6667   0.9167
  0.0000   0.8333   0.0000
  0.0000   0.8333   0.0833
  0.0000   0.8333   0.1667
  0.0000   0.8333   0.2500
  0.0000   0.8333   0.3333
  0.0000   0.8333   0.4167
  0.0000   0.8333   0.5000
  0.0000   0.8333   0.5833
  0.0000   0.8333   0.6667
  0.0000   0.8333   0.7500
  0.0000   0.8333   0.8333
  0.0000   0.8333   0.9167
  0.1250   0.0000   0.0000
  0.1250   0.0000   0.0833
  0.1250   0.0000   0.1667
  0.1250   0.0000   0.2500
  0.1250   0.0000   0.3333
  0.1250   0.0000   0.4167
  0.1250   0.0000   0.5000
  0.1250   0.0000   0.5833
  0.1250   0.0000   0.6667
  0.1250   0.0000   0.7500
  0.1250   0.0000   0.8333
  0.1250   0.0000   0.9167
  0.1250   0.1667   0.0000
  0.1250   0.1667   0.0833
  0.1250   0.1667   0.1667
  0.1250   0.1667   0.2500
  0.1250   0.1667   0.3333
  0.1250   0.1667   0.4167
  0.1250   0.1667   0.5000
  0.1250   0.1667   0.5833
  0.1250   0.1667   0.6667
  0.1250   0.1667   0.7500
  0.1250   0.1667   0.8333
  0.1250   0.1667   0.9167
  0.1250   0.3333   0.0000
  0.1250   0.3333   0.0833
  0.1250   0.3333   0.1667
  0.1250   0.3333   0.2500
  0.1250   0.3333   0.3333
  0.1250   0.3333   0.4167
  0.1250   0.3333   0.5000
  0.1250   0.3333   0.5833
  0.1250   0.3333   0.6667
  0.1250   0.3333   0.7500
  0.1250   0.3333   0.8333
  0.1250   0.3333   0.9167
  0.1250   0.5000   0.0000
  0.1250   0.5000   0.0833
  0.1250   0.5000   0.1667
  0.1250   0.5000   0.2500
  0.1250   0.5000   0.3333
  0.1250   0.5000   0.4167
  0.1250   0.5000   0.5000
  0.1250   0.5000   0.5833
  0.1250   0.5000   0.6667
  0.1250   0.5000   0.7500
  0.1250   0.5000   0.8333
  0.1250   0.5000   0.9167
  0.1250   0.6667   0.0000
  0.1250   0.6667   0.0833
  0.1250   0.6667   0.1667
  0.1250   0.6667   0.2500
  0.1250   0.6667   0.3333
  0.1250   0.6667   0.4167
  0.1250   0.6667   0.5000
  0.1250   0.6667   0.5833
  0.1250   0.6667   0.6667
  0.1250   0.6667   0.7500
  0.1250   0.6667   0.8333
  0.1250   0.6667   0.9167
  0.1250   0.8333   0.0000
  0.1250   0.8333   0.0833
  0.1250   0.8333   0.1667
  0.1250   0.8333   0.2500
  0.1250   0.8333   0.3333
  0.1250   0.8333   0.4167
  0.1250   0.8333   0.5000
  0.1250   0.8333   0.5833
  0.1250   0.8333   0.6667
  0.1250   0.8333   0.7500
  0.1250   0.8333   0.8333
  0.1250   0.8333   0.9167
  0.2500   0.0000   0.0000
  0.2500   0.0000   0.0833
  0.2500   0.0000   0.1667
  0.2500   0.0000   0.2500
  0.2500   0.0000   0.3333
  0.2500   0.0000   0.4167
  0.2500   0.0000   0.5000
  0.2500   0.0000   0.5833
  0.2500   0.0000   0.6667
  0.2500   0.0000   0.7500
  0.2500   0.0000   0.8333
  0.2500   0.0000   0.9167
  0.2500   0.1667   0.0000
  0.2500   0.1667   0.0833
  0.2500   0.1667   0.1667
  0.2500   0.1667   0.2500
  0.2500   0.1667   0.3333
  0.2500   0.1667   0.4167
  0.2500   0.1667   0.5000
  0.2500   0.1667   0.5833
  0.2500   0.1667   0.6667
  0.2500   0.1667   0.7500
  0.2500   0.1667   0.8333
  0.2500   0.1667   0.9167
  0.2500   0.3333   0.0000
  0.2500   0.3333   0.0833
  0.2500   0.3333   0.1667
  0.2500   0.3333   0.2500
  0.2500   0.3333   0.3333
  0.2500   0.3333   0.4167
  0.2500   0.3333   0.5000
  0.2500   0.3333   0.5833
  0.2500   0.3333   0.6667
  0.2500   0.3333   0.7500
  0.2500   0.3333   0.8333
  0.2500   0.3333   0.9167
  0.2500   0.5000   0.0000
  0.2500   0.5000   0.0833
  0.2500   0.5000   0.1667
  0.2500   0.5000   0.2500
  0.2500   0.5000   0.3333
  0.2500   0.5000   0.4167
  0.2500   0.5000   0.5000
  0.2500   0.5000   0.5833
  0.2500   0.5000   0.6667
  0.2500   0.5000   0.7500
  0.2500   0.5000   0.8333
  0.2500   0.5000   0.9167
  0.2500   0.6667   0.0000
  0.2500   0.6667   0.0833
  0.2500   0.6667   0.1667
  0.2500   0.6667   0.2500
  0.2500   0.6667   0.3333
  0.2500   0.6667   0.4167
  0.2500   0.6667   0.5000
  0.2500   0.6667   0.5833
  0.2500   0.6667   0.6667
  0.2500   0.6667   0.7500
  0.2500   0.6667   0.8333
  0.2500   0.6667   0.9167
  0.2500   0.8333   0.0000
  0.2500   0.8333   0.0833
  0.2500   0.8333   0.1667
  0.2500   0.8333   0.2500
  0.2500   0.8333   0.3333
  0.2500   0.8333   0.4167
  0.2500   0.8333   0.5000
  0.2500   0.8333   0.5833
  0.2500   0.8333   0.6667
  0.2500   0.8333   0.7500
  0.2500   0.8333   0.8333
  0.2500   0.8333   0.9167
  0.3750   0.0000   0.0000
  0.3750   0.0000   0.0833
  0.3750   0.0000   0.1667
  0.3750   0.0000   0.2500
  0.3750   0.0000   0.3333
  0.3750   0.0000   0.4167
  0.3750   0.0000   0.5000
  0.3750   0.0000   0.5833
  0.3750   0.0000   0.6667
  0.3750   0.0000   0.7500
  0.3750   0.0000   0.8333
  0.3750   0.0000   0.9167
  0.3750   0.1667   0.0000
  0.3750   0.1667   0.0833
  0.3750   0.1667   0.1667
  0.3750   0.1667   0.2500
  0.3750   0.1667   0.3333
  0.3750   0.1667   0.4167
  0.3750   0.1667   0.5000
  0.3750   0.1667   0.5833
  0.3750   0.1667   0.6667
  0.3750   0.1667   0.7500
  0.3750   0.1667   0.8333
  0.3750   0.1667   0.9167
  0.3750   0.3333   0.0000
  0.3750   0.3333   0.0833
  0.3750   0.3333   0.1667
  0.3750   0.3333   0.2500
  0.3750   0.3333   0.3333
  0.3750   0.3333   0.4167
  0.3750   0.3333   0.5000
  0.3750   0.3333   0.5833
  0.3750   0.3333   0.6667
  0.3750   0.3333   0.7500
  0.3750   0.3333   0.8333
  0.3750   0.3333   0.9167
  0.3750   0.5000   0.0000
  0.3750   0.5000   0.0833
  0.3750   0.5000   0.1667
  0.3750   0.5000   0.2500
  0.3750   0.5000   0.3333
  0.3750   0.5000   0.4167
  0.3750   0.5000   0.5000
  0.3750   0.5000   0.5833
  0.3750   0.5000   0.6667
  0.3750   0.5000   0.7500
  0.3750   0.5000   0.8333
  0.3750   0.5000   0.9167
  0.3750   0.6667   0.0000
  0.3750   0.6667   0.0833
  0.3750   0.6667   0.1667
  0.3750   0.6667   0.2500
  0.3750   0.6667   0.3333
  0.3750   0.6667   0.4167
  0.3750   0.6667   0.5000
  0.3750   0.6667   0.5833
  0.3750   0.6667   0.6667
  0.3750   0.6667   0.7500
  0.3750   0.6667   0.8333
  0.3750   0.6667   0.9167
  0.3750   0.8333   0.0000
  0.3750   0.8333   0.0833
  0.3750   0.8333   0.1667
  0.3750   0.8333   0.2500
  0.3750   0.8333   0.3333
  0.3750   0.8333   0.4167
  0.3750   0.8333   0.5000
  0.3750   0.8333   0.5833
  0.3750   0.8333   0.6667
  0.3750   0.8333   0.7500
  0.3750   0.8333   0.8333
  0.3750   0.8333   0.9167
  0.5000   0.0000   0.0000
  0.5000   0.0000   0.0833
  0.5000   0.0000   0.1667
  0.5000   0.0000   0.2500
  0.5000   0.0000   0.3333
  0.5000   0.0000   0.4167
  0.5000   0.0000   0.5000
  0.5000   0.0000   0.5833
  0.5000   0.0000   0.6667
  0.5000   0.0000   0.7500
  0.5000   0.0000   0.8333
  0.5000   0.0000   0.9167
  0.5000   0.1667   0.0000
  0.5000   0.1667   0.0833
  0.5000   0.1667   0.1667
  0.5000   0.1667   0.2500
  0.5000   0.1667   0.3333
  0.5000   0.1667   0.4167
  0.5000   0.1667   0.5000
  0.5000   0.1667   0.5833
  0.5000   0.1667   0.6667
  0.5000   0.1667   0.7500
  0.5000   0.1667   0.8333
  0.5000   0.1667   0.9167
  0.5000   0.3333   0.0000
  0.5000   0.3333   0.0833
  0.5000   0.3333   0.1667
  0.5000   0.3333   0.2500
  0.5000   0.3333   0.3333
  0.5000   0.3333   0.4167
  0.5000   0.3333   0.5000
  0.5000   0.3333   0.5833
  0.5000   0.3333   0.6667
  0.5000   0.3333   0.7500
  0.5000   0.3333   0.8333
  0.5000   0.3333   0.9167
  0.5000   0.5000   0.0000
  0.5000   0.5000   0.0833
  0.5000   0.5000   0.1667
  0.5000   0.5000   0.2500
  0.5000   0.5000   0.3333
  0.5000   0.5000   0.4167
  0.5000   0.5000   0.5000
  0.5000   0.5000   0.5833
  0.5000   0.5000   0.6667
  0.5000   0.5000   0.7500
  0.5000   0.5000   0.8333
  0.5000   0.5000   0.9167
  0.5000   0.6667   0.0000
  0.5000   0.6667   0.0833
  0.5000   0.6667   0.1667
  0.5000   0.6667   0.2500
  0.5000   0.6667   0.3333
  0.5000   0.6667   0.4167
  0.5000   0.6667   0.5000
  0.5000   0.6667   0.5833
  0.5000   0.6667   0.6667
  0.5000   0.6667   0.7500
  0.5000   0.6667   0.8333
  0.5000   0.6667   0.9167
  0.5000   0.8333   0.0000
  0.5000   0.8333   0.0833
  0.5000   0.8333   0.1667
  0.5000   0.8333   0.2500
  0.5000   0.8333   0.3333
  0.5000   0.8333   0.4167
  0.5000   0.8333   0.5000
  0.5000   0.8333   0.5833
  0.5000   0.8333   0.6667
  0.5000   0.8333   0.7500
  0.5000   0.8333   0.8333
  0.5000   0.8333   0.9167
  0.6250   0.0000   0.0000
  0.6250   0.0000   0.0833
  0.6250   0.0000   0.1667
  0.6250   0.0000   0.2500
  0.6250   0.0000   0.3333
  0.6250   0.0000   0.4167
  0.6250   0.0000   0.5000
  0.6250   0.0000   0.5833
  0.6250   0.0000   0.6667
  0.6250   0.0000   0.7500
  0.6250   0.0000   0.8333
  0.6250   0.0000   0.9167
  0.6250   0.1667   0.0000
  0.6250   0.1667   0.0833
  0.6250   0.1667   0.1667
  0.6250   0.1667   0.2500
  0.6250   0.1667   0.3333
  0.6250   0.1667   0.4167
  0.6250   0.1667   0.5000
  0.6250   0.1667   0.5833
  0.6250   0.1667   0.6667
  0.6250   0.1667   0.7500
  0.6250   0.1667   0.8333
  0.6250   0.1667   0.9167
  0.6250   0.3333   0.0000
  0.6250   0.3333   0.0833
  0.6250   0.3333   0.1667
  0.6250   0.3333   0.2500
  0.6250   0.3333   0.3333
  0.6250   0.3333   0.4167
  0.6250   0.3333   0.5000
  0.6250   0.3333   0.5833
  0.6250   0.3333   0.6667
  0.6250   0.3333   0.7500
  0.6250   0.3333   0.8333
  0.6250   0.3333   0.9167
  0.6250   0.5000   0.0000
  0.6250   0.5000   0.0833
  0.6250   0.5000   0.1667
  0.6250   0.5000   0.2500
  0.6250   0.5000   0.3333
  0.6250   0.5000   0.4167
  0.6250   0.5000   0.5000
  0.6250   0.5000   0.5833
  0.6250   0.5000   0.6667
  0.6250   0.5000   0.7500
  0.6250   0.5000   0.8333
  0.6250   0.5000   0.9167
  0.6250   0.6667   0.0000
  0.6250   0.6667   0.0833
  0.6250   0.6667   0.1667
  0.6250   0.6667   0.2500
  0.6250   0.6667   0.3333
  0.6250   0.6667   0.4167
  0.6250   0.6667   0.5000
  0.6250   0.6667   0.5833
  0.6250   0.6667   0.6667
  0.6250   0.6667   0.7500
  0.6250   0.6667   0.8333
  0.6250   0.6667   0.9167
  0.6250   0.8333   0.0000
  0.6250   0.8333   0.0833
  0.6250   0.8333   0.1667
  0.6250   0.8333   0.2500
  0.6250   0.8333   0.3333
  0.6250   0.8333   0.4167
  0.6250   0.8333   0.5000
  0.6250   0.8333   0.5833
  0.6250   0.8333   0.6667
  0.6250   0.8333   0.7500
  0.6250   0.8333   0.8333
  0.6250   0.8333   0.9167
  0.7500   0.0000   0.0000
  0.7500   0.0000   0.0833
  0.7500   0.0000   0.1667
  0.7500   0.0000   0.2500
  0.7500   0.0000   0.3333
  0.7500   0.0000   0.4167
  0.7500   0.0000   0.5000
  0.7500   0.0000   0.5833
  0.7500   0.0000   0.6667
  0.7500   0.0000   0.7500
  0.7500   0.0000   0.8333
  0.7500   0.0000   0.9167
  0.7500   0.1667   0.0000
  0.7500   0.1667   0.0833
  0.7500   0.1667   0.1667
  0.7500   0.1667   0.2500
  0.7500   0.1667   0.3333
  0.7500   0.1667   0.4167
  0.7500   0.1667   0.5000
  0.7500   0.1667   0.5833
  0.7500   0.1667   0.6667
  0.7500   0.1667   0.7500
  0.7500   0.1667   0.8333
  0.7500   0.1667   0.9167
  0.7500   0.3333   0.0000
  0.7500   0.3333   0.0833
  0.7500   0.3333   0.1667
  0.7500   0.3333   0.2500
  0.7500   0.3333   0.3333
  0.7500   0.3333   0.4167
  0.7500   0.3333   0.5000
  0.7500   0.3333   0.5833
  0.7500   0.3333   0.6667
  0.7500   0.3333   0.7500
  0.7500   0.3333   0.8333
  0.7500   0.3333   0.9167
  0.7500   0.5000   0.0000
  0.7500   0.5000   0.0833
  0.7500   0.5000   0.1667
  0.7500   0.5000   0.2500
  0.7500   0.5000   0.3333
  0.7500   0.5000   0.4167
  0.7500   0.5000   0.5000
  0.7500   0.5000   0.5833
  0.7500   0.5000   0.6667
  0.7500   0.5000   0.7500
  0.7500   0.5000   0.8333
  0.7500   0.5000   0.9167
  0.7500   0.6667   0.0000
  0.7500   0.6667   0.0833
  0.7500   0.6667   0.1667
  0.7500   0.6667   0.2500
  0.7500   0.6667   0.3333
  0.7500   0.6667   0.4167
  0.7500   0.6667   0.5000
  0.7500   0.6667   0.5833
  0.7500   0.6667   0.6667
  0.7500   0.6667   0.7500
  0.7500   0.6667   0.8333
  0.7500   0.6667   0.9167
  0.7500   0.8333   0.0000
  0.7500   0.8333   0.0833
  0.7500   0.8333   0.1667
  0.7500   0.8333   0.2500
  0.7500   0.8333   0.3333
  0.7500   0.8333   0.4167
  0.7500   0.8333   0.5000
  0.7500   0.8333   0.5833
  0.7500   0.8333   0.6667
  0.7500   0.8333   0.7500
  0.7500   0.8333   0.8333
  0.7500   0.8333   0.9167
  0.8750   0.0000   0.0000
  0.8750   0.0000   0.0833
  0.8750   0.0000   0.1667
  0.8750   0.0000   0.2500
  0.8750   0.0000   0.3333
  0.8750   0.0000   0.4167
  0.8750   0.0000   0.5000
  0.8750   0.0000   0.5833
  0.8750   0.0000   0.6667
  0.8750   0.0000   0.7500
  0.8750   0.0000   0.8333
  0.8750   0.0000   0.9167
  0.8750   0.1667   0.0000
  0.8750   0.1667   0.0833
  0.8750   0.1667   0.1667
  0.8750   0.1667   0.2500
  0.8750   0.1667   0.3333
  0.8750   0.1667   0.4167
  0.8750   0.1667   0.5000
  0.8750   0.1667   0.5833
  0.8750   0.1667   0.6667
  0.8750   0.1667   0.7500
  0.8750   0.1667   0.8333
  0.8750   0.1667   0.9167
  0.8750   0.3333   0.0000
  0.8750   0.3333   0.0833
  0.8750   0.3333   0.1667
  0.8750   0.3333   0.2500
  0.8750   0.3333   0.3333
  0.8750   0.3333   0.4167
  0.8750   0.3333   0.5000
  0.8750   0.3333   0.5833
  0.8750   0.3333   0.6667
  0.8750   0.3333   0.7500
  0.8750   0.3333   0.8333
  0.8750   0.3333   0.9167
  0.8750   0.5000   0.0000
  0.8750   0.5000   0.0833
  0.8750   0.5000   0.1667
  0.8750   0.5000   0.2500
  0.8750   0.5000   0.3333
  0.8750   0.5000   0.4167
  0.8750   0.5000   0.5000
  0.8750   0.5000   0.5833
  0.8750   0.5000   0.6667
  0.8750   0.5000   0.7500
  0.8750   0.5000   0.8333
  0.8750   0.5000   0.9167
  0.8750   0.6667   0.0000
  0.8750   0.6667   0.0833
  0.8750   0.6667   0.1667
  0.8750   0.6667   0.2500
  0.8750   0.6667   0.3333
  0.8750   0.6667   0.4167
  0.8750   0.6667   0.5000
  0.8750   0.6667   0.5833
  0.8750   0.6667   0.6667
  0.8750   0.6667   0.7500
  0.8750   0.6667   0.8333
  0.8750   0.6667   0.9167
  0.8750   0.8333   0.0000
  0.8750   0.8333   0.0833
  0.8750   0.8333   0.1667
  0.8750   0.8333   0.2500
  0.8750   0.8333   0.3333
  0.8750   0.8333   0.4167
  0.8750   0.8333   0.5000
  0.8750   0.8333   0.5833
  0.8750   0.8333   0.6667
  0.8750   0.8333   0.7500
  0.8750   0.8333   0.8333
  0.8750   0.8333   0.9167