E = -1
1
  3.5653   0.0000   0.0000
  0.9270   5.4980   0.0000
  1.5867   0.7580   6.9191
H
1078
Direct
  0.0000   0.0000   0.0000
  0.0000   0.0000   0.0714
  0.0000   0.0000   0.1429
  0.0000   0.0000   0.2143
  0.0000   0.0000   0.2857
  0.0000   0.0000   0.3571
  0.0000   0.0000   0.4286
  0.0000   0.0000   0.5000
  0.0000   0.0000   0.5714
  0.0000   0.0000   0.6429
  0.0000   0.0000   0.7143
  0.0000   0.0000   0.7857
  0.0000   0.0000   0.8571
  0.0000   0.0000   0.9286
  0.0000   0.0909   0.0000
  0.0000   0.0909   0.0714
  0.0000   0.0909   0.1429
  0.0000   0.0909   0.2143
  0.0000   0.0909   0.2857
  0.0000   0.0909   0.3571
  0.0000   0.0909   0.4286
  0.0000   0.0909   0.5000
  0.0000   0.0909   0.5714
  0.0000   0.0909   0.6429
  0.0000   0.0909   0.7143
  0.0000   0.0909   0.7857
  0.0000   0.0909   0.8571
  0.0000   0.0909   0.9286
  0.0000   0.1818   0.0000
  0.0000   0.1818   0.0714
  0.0000   0.1818   0.1429
  0.0000   0.1818   0.2143
  0.0000   0.1818   0.2857
  0.0000   0.1818   0.3571
  0.0000   0.1818   0.4286
  0.0000   0.1818   0.5000
  0.0000   0.1818   0.5714
  0.0000   0.1818   0.6429
  0.0000   0.1818   0.7143
  0.0000   0.1818   0.7857
  0.0000   0.1818   0.8571
  0.0000   0.1818   0.9286
  0.0000   0.2727   0.0000
  0.0000   0.2727   0.0714
  0.0000   0.2727   0.1429
  0.0000   0.2727   0.2143
  0.0000   0.2727   0.2857
  0.0000   0.2727   0.3571
  0.0000   0.2727   0.4286
  0.0000   0.2727   0.5000
  0.0000   0.2727   0.5714
  0.0000   0.2727   0.6429
  0.0000   0.2727   0.7143
  0.0000   0.2727   0.7857
  0.0000   0.2727   0.8571
  0.0000   0.2727   0.9286
  0.0000   0.3636   0.0000
  0.0000   0.3636   0.0714
  0.0000   0.3636   0.1429
  0.0000   0.3636   0.2143
  0.0000   0.3636   0.2857
  0.0000   0.3636   0.3571
  0.0000   0.3636   0.4286
  0.0000   0.3636   0.5000
  0.0000   0.3636   0.5714
  0.0000   0.3636   0.6429
  0.0000   0.3636   0.7143
  0.0000   0.3636   0.7857
  0.0000   0.3636   0.8571
  0.0000   0.3636   0.9286
  0.0000   0.4545   0.0000
  0.0000   0.4545   0.0714
  0.0000   0.4545   0.1429
  0.0000   0.4545   0.2143
  0.0000   0.4545   0.2857
  0.0000   0.4545   0.3571
  0.0000   0.4545   0.4286
  0.0000   0.4545   0.5000
  0.0000   0.4545   0.5714
  0.0000   0.4545   0.6429
  0.0000   0.4545   0.7143
  0.0000   0.4545   0.7857
  0.0000   0.4545   0.8571
  0.0000   0.4545   0.9286
  0.0000   0.5455   0.0000
  0.0000   0.5455   0.0714
  0.0000   0.5455   0.1429
  0.0000   0.5455   0.2143
  0.0000   0.5455   0.2857
  0.0000   0.5455   0.3571
  0.0000   0.5455   0.4286
  0.0000   0.5455   0.5000
  0.0000   0.5455   0.5714
  0.0000   0.5455   0.6429
  0.0000   0.5455   0.7143
  0.0000   0.5455   0.7857
  0.0000   0.5455   0.8571
  0.0000   0.5455   0.9286
  0.0000   0.6364   0.0000
  0.0000   0.6364   0.0714
  0.0000   0.6364   0.1429
  0.0000   0.6364   0.2143
  0.0000   0.6364   0.2857
  0.0000   0.6364   0.3571
  0.0000   0.6364   0.4286
  0.0000   0.6364   0.5000
  0.0000   0.6364   0.5714
  0.0000   0.6364   0.6429
  0.0000   0.6364   0.7143
  0.0000   0.6364   0.7857
  0.0000   0.6364   0.8571
  0.0000   0.6364   0.9286
  0.0000   0.7273   0.0000
  0.0000   0.7273   0.0714
  0.0000   0.7273   0.1429
  0.0000   0.7273   0.2143
  0.0000   0.7273   0.2857
  0.0000   0.7273   0.3571
  0.0000   0.7273   0.4286
  0.0000   0.7273   0.5000
  0.0000   0.7273   0.5714
  0.0000   0.7273   0.6429
  0.0000   0.7273   0.7143
  0.0000   0.7273   0.7857
  0.0000   0.7273   0.8571
  0.0000   0.7273   0.9286
  0.0000   0.8182   0.0000
  0.0000   0.8182   0.0714
  0.0000   0.8182   0.1429
  0.0000   0.8182   0.2143
  0.0000   0.8182   0.2857
  0.0000   0.8182   0.3571
  0.0000   0.8182   0.4286
  0.0000   0.8182   0.5000
  0.0000   0.8182   0.5714
  0.0000   0.8182   0.6429
  0.0000   0.8182   0.7143
  0.0000   0.8182   0.7857
  0.0000   0.8182   0.8571
  0.0000   0.8182   0.9286
  0.0000   0.9091   0.0000
  0.0000   0.9091   0.0714
  0.0000   0.9091   0.1429
  0.0000   0.9091   0.2143
  0.0000   0.9091   0.2857
  0.0000   0.9091   0.3571
  0.0000   0.9091   0.4286
  0.0000   0.9091   0.5000
  0.0000   0.9091   0.5714
  0.0000   0.9091   0.6429
  0.0000   0.9091   0.7143
  0.0000   0.9091   0.7857
  0.0000   0.9091   0.8571
  0.0000   0.9091   0.9286
  0.1429   0.0000   0.0000
  0.1429   0.0000   0.0714
  0.1429   0.0000   0.1429
  0.1429   0.0000   0.2143
  0.1429   0.0000   0.2857
  0.1429   0.0000   0.3571
  0.1429   0.0000   0.4286
  0.1429   0.0000   0.5000
  0.1429   0.0000   0.5714
  0.1429   0.0000   0.6429
  0.1429   0.0000   0.7143
  0.1429   0.0000   0.7857
  0.1429   0.0000   0.8571
  0.1429   0.0000   0.9286
  0.1429   0.0909   0.0000
  0.1429   0.0909   0.0714
  0.1429   0.0909   0.1429
  0.1429   0.0909   0.2143
  0.1429   0.0909   0.2857
  0.1429   0.0909   0.3571
  0.1429   0.0909   0.4286
  0.1429   0.0909   0.5000
  0.1429   0.0909   0.5714
  0.1429   0.0909   0.6429
  0.1429   0.0909   0.7143
  0.1429   0.0909   0.7857
  0.1429   0.0909   0.8571
  0.1429   0.0909   0.9286
  0.1429   0.1818   0.0000
  0.1429   0.1818   0.0714
  0.1429   0.1818   0.1429
  0.1429   0.1818   0.2143
  0.1429   0.1818   0.2857
  0.1429   0.1818   0.3571
  0.1429   0.1818   0.4286
  0.1429   0.1818   0.5000
  0.1429   0.1818   0.5714
  0.1429   0.1818   0.6429
  0.1429   0.1818   0.7143
  0.1429   0.1818   0.7857
  0.1429   0.1818   0.8571
  0.1429   0.1818   0.9286
  0.1429   0.2727   0.0000
  0.1429   0.2727   0.0714
  0.1429   0.2727   0.1429
  0.1429   0.2727   0.2143
  0.1429   0.2727   0.2857
  0.1429   0.2727   0.3571
  0.1429   0.2727   0.4286
  0.1429   0.2727   0.5000
  0.1429   0.2727   0.5714
  0.1429   0.2727   0.6429
  0.1429   0.2727   0.7143
  0.1429   0.2727   0.7857
  0.1429   0.2727   0.8571
  0.1429   0.2727   0.9286
  0.1429   0.3636   0.0000
  0.1429   0.3636   0.0714
  0.1429   0.3636   0.1429
  0.1429   0.3636   0.2143
  0.1429   0.3636   0.2857
  0.1429   0.3636   0.3571
  0.1429   0.3636   0.4286
  0.1429   0.3636   0.5000
  0.1429   0.3636   0.5714
  0.1429   0.3636   0.6429
  0.1429   0.3636   0.7143
  0.1429   0.3636   0.7857
  0.1429   0.3636   0.8571
  0.1429   0.3636   0.9286
  0.1429   0.4545   0.0000
  0.1429   0.4545   0.0714
  0.1429   0.4545   0.1429
  0.1429   0.4545   0.2143
  0.1429   0.4545   0.2857
  0.1429   0.4545   0.3571
  0.1429   0.4545   0.4286
  0.1429   0.4545   0.5000
  0.1429   0.4545   0.5714
  0.1429   0.4545   0.6429
  0.1429   0.4545   0.7143
  0.1429   0.4545   0.7857
  0.1429   0.4545   0.8571
  0.1429   0.4545   0.9286
  0.1429   0.5455   0.0000
  0.1429   0.5455   0.0714
  0.1429   0.5455   0.1429
  0.1429   0.5455   0.2143
  0.1429   0.5455   0.2857
  0.1429   0.5455   0.3571
  0.1429   0.5455   0.4286
  0.1429   0.5455   0.5000
  0.1429   0.5455   0.5714
  0.1429   0.5455   0.6429
  0.1429   0.5455   0.7143
  0.1429   0.5455   0.7857
  0.1429   0.5455   0.8571
  0.1429   0.5455   0.9286
  0.1429   0.6364   0.0000
  0.1429   0.6364   0.0714
  0.1429   0.6364   0.1429
  0.1429   0.6364   0.2143
  0.1429   0.6364   0.2857
  0.1429   0.6364   0.3571
  0.1429   0.6364   0.4286
  0.1429   0.6364   0.5000
  0.1429   0.6364   0.5714
  0.1429   0.6364   0.6429
  0.1429   0.6364   0.7143
  0.1429   0.6364   0.7857
  0.1429   0.6364   0.8571
  0.1429   0.6364   0.9286
  0.1429   0.7273   0.0000
  0.1429   0.7273   0.0714
  0.1429   0.7273   0.1429
  0.1429   0.7273   0.2143
  0.1429   0.7273   0.2857
  0.1429   0.7273   0.3571
  0.1429   0.7273   0.4286
  0.1429   0.7273   0.5000
  0.1429   0.7273   0.5714
  0.1429   0.7273   0.6429
  0.1429   0.7273   0.7143
  0.1429   0.7273   0.7857
  0.1429   0.7273   0.8571
  0.1429   0.7273   0.9286
  0.1429   0.8182   0.0000
  0.1429   0.8182   0.0714
  0.1429   0.8182   0.1429
  0.1429   0.8182   0.2143
  0.1429   0.8182   0.2857
  0.1429   0.8182   0.3571
  0.1429   0.8182   0.4286
  0.1429   0.8182   0.5000
  0.1429   0.8182   0.5714
  0.1429   0.8182   0.6429
  0.1429   0.8182   0.7143
  0.1429   0.8182   0.7857
  0.1429   0.8182   0.8571
  0.1429   0.8182   0.9286
  0.1429   0.9091   0.0000
  0.1429   0.9091   0.0714
  0.1429   0.9091   0.1429
  0.1429   0.9091   0.2143
  0.1429   0.9091   0.2857
  0.1429   0.9091   0.3571
  0.1429   0.9091   0.4286
  0.1429   0.9091   0.5000
  0.1429   0.9091   0.5714
  0.1429   0.9091   0.6429
  0.1429   0.9091   0.7143
  0.1429   0.9091   0.7857
  0.1429   0.9091   0.8571
  0.1429   0.9091   0.9286
  0.2857   0.0000   0.0000
  0.2857   0.0000   0.0714
  0.2857   0.0000   0.1429
  0.2857   0.0000   0.2143
  0.2857   0.0000   0.2857
  0.2857   0.0000   0.3571
  0.2857   0.0000   0.4286
  0.2857   0.0000   0.5000
  0.2857   0.0000   0.5714
  0.2857   0.0000   0.6429
  0.2857   0.0000   0.7143
  0.2857   0.0000   0.7857
  0.2857   0.0000   0.8571
  0.2857   0.0000   0.9286
  0.2857   0.0909   0.0000
  0.2857   0.0909   0.0714
  0.2857   0.0909   0.1429
  0.2857   0.0909   0.2143
  0.2857   0.0909   0.2857
  0.2857   0.0909   0.3571
  0.2857   0.0909   0.4286
  0.2857   0.0909   0.5000
  0.2857   0.0909   0.5714
  0.2857   0.0909   0.6429
  0.2857   0.0909   0.7143
  0.2857   0.0909   0.7857
  0.2857   0.0909   0.8571
  0.2857   0.0909   0.9286
  0.2857   0.1818   0.0000
  0.2857   0.1818   0.0714
  0.2857   0.1818   0.1429
  0.2857   0.1818   0.2143
  0.2857   0.1818   0.2857
  0.2857   0.1818   0.3571
  0.2857   0.1818   0.4286
  0.2857   0.1818   0.5000
  0.2857   0.1818   0.5714
  0.2857   0.1818   0.6429
  0.2857   0.1818   0.7143
  0.2857   0.1818   0.7857
  0.2857   0.1818   0.8571
  0.2857   0.1818   0.9286
  0.2857   0.2727   0.0000
  0.2857   0.2727   0.0714
  0.2857   0.2727   0.1429
  0.2857   0.2727   0.2143
  0.2857   0.2727   0.2857
  0.2857   0.2727   0.3571
  0.2857   0.2727   0.4286
  0.2857   0.2727   0.5000
  0.2857   0.2727   0.5714
  0.2857   0.2727   0.6429
  0.2857   0.2727   0.7143
  0.2857   0.2727   0.7857
  0.2857   0.2727   0.8571
  0.2857   0.2727   0.9286
  0.2857   0.3636   0.0000
  0.2857   0.3636   0.0714
  0.2857   0.3636   0.1429
  0.2857   0.3636   0.2143
  0.2857   0.3636   0.2857
  0.2857   0.3636   0.3571
  0.2857   0.3636   0.4286
  0.2857   0.3636   0.5000
  0.2857   0.3636   0.5714
  0.2857   0.3636   0.6429
  0.2857   0.3636   0.7143
  0.2857   0.3636   0.7857
  0.2857   0.3636   0.8571
  0.2857   0.3636   0.9286
  0.2857   0.4545   0.0000
  0.2857   0.4545   0.0714
  0.2857   0.4545   0.1429
  0.2857   0.4545   0.2143
  0.2857   0.4545   0.2857
  0.2857   0.4545   0.3571
  0.2857   0.4545   0.4286
  0.2857   0.4545   0.5000
  0.2857   0.4545   0.5714
  0.2857   0.4545   0.6429
  0.2857   0.4545   0.7143
  0.2857   0.4545   0.7857
  0.2857   0.4545   0.8571
  0.2857   0.4545   0.9286
  0.2857   0.5455   0.0000
  0.2857   0.5455   0.0714
  0.2857   0.5455   0.1429
  0.2857   0.5455   0.2143
  0.2857   0.5455   0.2857
  0.2857   0.5455   0.3571
  0.2857   0.5455   0.4286
  0.2857   0.5455   0.5000
  0.2857   0.5455   0.5714
  0.2857   0.5455   0.6429
  0.2857   0.5455   0.7143
  0.2857   0.5455   0.7857
  0.2857   0.5455   0.8571
  0.2857   0.5455   0.9286
  0.2857   0.6364   0.0000
  0.2857   0.6364   0.0714
  0.2857   0.6364   0.1429
  0.2857   0.6364   0.2143
  0.2857   0.6364   0.2857
  0.2857   0.6364   0.3571
  0.2857   0.6364   0.4286
  0.2857   0.6364   0.5000
  0.2857   0.6364   0.5714
  0.2857   0.6364   0.6429
  0.2857   0.6364   0.7143
  0.2857   0.6364   0.7857
  0.2857   0.6364   0.8571
  0.2857   0.6364   0.9286
  0.2857   0.7273   0.0000
  0.2857   0.7273   0.0714
  0.2857   0.7273   0.1429
  0.2857   0.7273   0.2143
  0.2857   0.7273   0.2857
  0.2857   0.7273   0.3571
  0.2857   0.7273   0.4286
  0.2857   0.7273   0.5000
  0.2857   0.7273   0.5714
  0.2857   0.7273   0.6429
  0.2857   0.7273   0.7143
  0.2857   0.7273   0.7857
  0.2857   0.7273   0.8571
  0.2857   0.7273   0.9286
  0.2857   0.8182   0.0000
  0.2857   0.8182   0.0714
  0.2857   0.8182   0.1429
  0.2857   0.8182   0.2143
  0.2857   0.8182   0.2857
  0.2857   0.8182   0.3571
  0.2857   0.8182   0.4286
  0.2857   0.8182   0.5000
  0.2857   0.8182   0.5714
  0.2857   0.8182   0.6429
  0.2857   0.8182   0.7143
  0.2857   0.8182   0.7857
  0.2857   0.8182   0.8571
  0.2857   0.8182   0.9286
  0.2857   0.9091   0.0000
  0.2857   0.9091   0.0714
  0.2857   0.9091   0.1429
  0.2857   0.9091   0.2143
  0.2857   0.9091   0.2857
  0.2857   0.9091   0.3571
  0.2857   0.9091   0.4286
  0.2857   0.9091   0.5000
  0.2857   0.9091   0.5714
  0.2857   0.9091   0.6429
  0.2857   0.9091   0.7143
  0.2857   0.9091   0.7857
  0.2857   0.9091   0.8571
  0.2857   0.9091   0.9286
  0.4286   0.0000   0.0000
  0.4286   0.0000   0.0714
  0.4286   0.0000   0.1429
  0.4286   0.0000   0.2143
  0.4286   0.0000   0.2857
  0.4286   0.0000   0.3571
  0.4286   0.0000   0.4286
  0.4286   0.0000   0.5000
  0.4286   0.0000   0.5714
  0.4286   0.0000   0.6429
  0.4286   0.0000   0.7143
  0.4286   0.0000   0.7857
  0.4286   0.0000   0.8571
  0.4286   0.0000   0.9286
  0.4286   0.0909   0.0000
  0.4286   0.0909   0.0714
  0.4286   0.0909   0.1429
  0.4286   0.0909   0.2143
  0.4286   0.0909   0.2857
  0.4286   0.0909   0.3571
  0.4286   0.0909   0.4286
  0.4286   0.0909   0.5000
  0.4286   0.0909   0.5714
  0.4286   0.0909   0.6429
  0.4286   0.0909   0.7143
  0.4286   0.0909   0.7857
  0.4286   0.0909   0.8571
  0.4286   0.0909   0.9286
  0.4286   0.1818   0.0000
  0.4286   0.1818   0.0714
  0.4286   0.1818   0.1429
  0.4286   0.1818   0.2143
  0.4286   0.1818   0.2857
  0.4286   0.1818   0.3571
  0.4286   0.1818   0.4286
  0.4286   0.1818   0.5000
  0.4286   0.1818   0.5714
  0.4286   0.1818   0.6429
  0.4286   0.1818   0.7143
  0.4286   0.1818   0.7857
  0.4286   0.1818   0.8571
  0.4286   0.1818   0.9286
  0.4286   0.2727   0.0000
  0.4286   0.2727   0.0714
  0.4286   0.2727   0.1429
  0.4286   0.2727   0.2143
  0.4286   0.2727   0.2857
  0.4286   0.2727   0.3571
  0.4286   0.2727   0.4286
  0.4286   0.2727   0.5000
  0.4286   0.2727   0.5714
  0.4286   0.2727   0.6429
  0.4286   0.2727   0.7143
  0.4286   0.2727   0.7857
  0.4286   0.2727   0.8571
  0.4286   0.2727   0.9286
  0.4286   0.3636   0.0000
  0.4286   0.3636   0.0714
  0.4286   0.3636   0.1429
  0.4286   0.3636   0.2143
  0.4286   0.3636   0.2857
  0.4286   0.3636   0.3571
  0.4286   0.3636   0.4286
  0.4286   0.3636   0.5000
  0.4286   0.3636   0.5714
  0.4286   0.3636   0.6429
  0.4286   0.3636   0.7143
  0.4286   0.3636   0.7857
  0.4286   0.3636   0.8571
  0.4286   0.3636   0.9286
  0.4286   0.4545   0.0000
  0.4286   0.4545   0.0714
  0.4286   0.4545   0.1429
  0.4286   0.4545   0.2143
  0.4286   0.4545   0.2857
  0.4286   0.4545   0.3571
  0.4286   0.4545   0.4286
  0.4286   0.4545   0.5000
  0.4286   0.4545   0.5714
  0.4286   0.4545   0.6429
  0.4286   0.4545   0.7143
  0.4286   0.4545   0.7857
  0.4286   0.4545   0.8571
  0.4286   0.4545   0.9286
  0.4286   0.5455   0.0000
  0.4286   0.5455   0.0714
  0.4286   0.5455   0.1429
  0.4286   0.5455   0.2143
  0.4286   0.5455   0.2857
  0.4286   0.5455   0.3571
  0.4286   0.5455   0.4286
  0.4286   0.5455   0.5000
  0.4286   0.5455   0.5714
  0.4286   0.5455   0.6429
  0.4286   0.5455   0.7143
  0.4286   0.5455   0.7857
  0.4286   0.5455   0.8571
  0.4286   0.5455   0.9286
  0.4286   0.6364   0.0000
  0.4286   0.6364   0.0714
  0.4286   0.6364   0.1429
  0.4286   0.6364   0.2143
  0.4286   0.6364   0.2857
  0.4286   0.6364   0.3571
  0.4286   0.6364   0.4286
  0.4286   0.6364   0.5000
  0.4286   0.6364   0.5714
  0.4286   0.6364   0.6429
  0.4286   0.6364   0.7143
  0.4286   0.6364   0.7857
  0.4286   0.6364   0.8571
  0.4286   0.6364   0.9286
  0.4286   0.7273   0.0000
  0.4286   0.7273   0.0714
  0.4286   0.7273   0.1429
  0.4286   0.7273   0.2143
  0.4286   0.7273   0.2857
  0.4286   0.7273   0.3571
  0.4286   0.7273   0.4286
  0.4286   0.7273   0.5000
  0.4286   0.7273   0.5714
  0.4286   0.7273   0.6429
  0.4286   0.7273   0.7143
  0.4286   0.7273   0.7857
  0.4286   0.7273   0.8571
  0.4286   0.7273   0.9286
  0.4286   0.8182   0.0000
  0.4286   0.8182   0.0714
  0.4286   0.8182   0.1429
  0.4286   0.8182   0.2143
  0.4286   0.8182   0.2857
  0.4286   0.8182   0.3571
  0.4286   0.8182   0.4286
  0.4286   0.8182   0.5000
  0.4286   0.8182   0.5714
  0.4286   0.8182   0.6429
  0.4286   0.8182   0.7143
  0.4286   0.8182   0.7857
  0.4286   0.8182   0.8571
  0.4286   0.8182   0.9286
  0.4286   0.9091   0.0000
  0.4286   0.9091   0.0714
  0.4286   0.9091   0.1429
  0.4286   0.9091   0.2143
  0.4286   0.9091   0.2857
  0.4286   0.9091   0.3571
  0.4286   0.9091   0.4286
  0.4286   0.9091   0.5000
  0.4286   0.9091   0.5714
  0.4286   0.9091   0.6429
  0.4286   0.9091   0.7143
  0.4286   0.9091   0.7857
  0.4286   0.9091   0.8571
  0.4286   0.9091   0.9286
  0.5714   0.0000   0.0000
  0.5714   0.0000   0.0714
  0.5714   0.0000   0.1429
  0.5714   0.0000   0.2143
  0.5714   0.0000   0.2857
  0.5714   0.0000   0.3571
  0.5714   0.0000   0.4286
  0.5714   0.0000   0.5000
  0.5714   0.0000   0.5714
  0.5714   0.0000   0.6429
  0.5714   0.0000   0.7143
  0.5714   0.0000   0.7857
  0.5714   0.0000   0.8571
  0.5714   0.0000   0.9286
  0.5714   0.0909   0.0000
  0.5714   0.0909   0.0714
  0.5714   0.0909   0.1429
  0.5714   0.0909   0.2143
  0.5714   0.0909   0.2857
  0.5714   0.0909   0.3571
  0.5714   0.0909   0.4286
  0.5714   0.0909   0.5000
  0.5714   0.0909   0.5714
  0.5714   0.0909   0.6429
  0.5714   0.0909   0.7143
  0.5714   0.0909   0.7857
  0.5714   0.0909   0.8571
  0.5714   0.0909   0.9286
  0.5714   0.1818   0.0000
  0.5714   0.1818   0.0714
  0.5714   0.1818   0.1429
  0.5714   0.1818   0.2143
  0.5714   0.1818   0.2857
  0.5714   0.1818   0.3571
  0.5714   0.1818   0.4286
  0.5714   0.1818   0.5000
  0.5714   0.1818   0.5714
  0.5714   0.1818   0.6429
  0.5714   0.1818   0.7143
  0.5714   0.1818   0.7857
  0.5714   0.1818   0.8571
  0.5714   0.1818   0.9286
  0.5714   0.2727   0.0000
  0.5714   0.2727   0.0714
  0.5714   0.2727   0.1429
  0.5714   0.2727   0.2143
  0.5714   0.2727   0.2857
  0.5714   0.2727   0.3571
  0.5714   0.2727   0.4286
  0.5714   0.2727   0.5000
  0.5714   0.2727   0.5714
  0.5714   0.2727   0.6429
  0.5714   0.2727   0.7143
  0.5714   0.2727   0.7857
  0.5714   0.2727   0.8571
  0.5714   0.2727   0.9286
  0.5714   0.3636   0.0000
  0.5714   0.3636   0.0714
  0.5714   0.3636   0.1429
  0.5714   0.3636   0.2143
  0.5714   0.3636   0.2857
  0.5714   0.3636   0.3571
  0.5714   0.3636   0.4286
  0.5714   0.3636   0.5000
  0.5714   0.3636   0.5714
  0.5714   0.3636   0.6429
  0.5714   0.3636   0.7143
  0.5714   0.3636   0.7857
  0.5714   0.3636   0.8571
  0.5714   0.3636   0.9286
  0.5714   0.4545   0.0000
  0.5714   0.4545   0.0714
  0.5714   0.4545   0.1429
  0.5714   0.4545   0.2143
  0.5714   0.4545   0.2857
  0.5714   0.4545   0.3571
  0.5714   0.4545   0.4286
  0.5714   0.4545   0.5000
  0.5714   0.4545   0.5714
  0.5714   0.4545   0.6429
  0.5714   0.4545   0.7143
  0.5714   0.4545   0.7857
  0.5714   0.4545   0.8571
  0.5714   0.4545   0.9286
  0.5714   0.5455   0.0000
  0.5714   0.5455   0.0714
  0.5714   0.5455   0.1429
  0.5714   0.5455   0.2143
  0.5714   0.5455   0.2857
  0.5714   0.5455   0.3571
  0.5714   0.5455   0.4286
  0.5714   0.5455   0.5000
  0.5714   0.5455   0.5714
  0.5714   0.5455   0.6429
  0.5714   0.5455   0.7143
  0.5714   0.5455   0.7857
  0.5714   0.5455   0.8571
  0.5714   0.5455   0.9286
  0.5714   0.6364   0.0000
  0.5714   0.6364   0.0714
  0.5714   0.6364   0.1429
  0.5714   0.6364   0.2143
  0.5714   0.6364   0.2857
  0.5714   0.6364   0.3571
  0.5714   0.6364   0.4286
  0.5714   0.6364   0.5000
  0.5714   0.6364   0.5714
  0.5714   0.6364   0.6429
  0.5714   0.6364   0.7143
  0.5714   0.6364   0.7857
  0.5714   0.6364   0.8571
  0.5714   0.6364   0.9286
  0.5714   0.7273   0.0000
  0.5714   0.7273   0.0714
  0.5714   0.7273   0.1429
  0.5714   0.7273   0.2143
  0.5714   0.7273   0.2857
  0.5714   0.7273   0.3571
  0.5714   0.7273   0.4286
  0.5714   0.7273   0.5000
  0.5714   0.7273   0.5714
  0.5714   0.7273   0.6429
  0.5714   0.7273   0.7143
  0.5714   0.7273   0.7857
  0.5714   0.7273   0.8571
  0.5714   0.7273   0.9286
  0.5714   0.8182   0.0000
  0.5714   0.8182   0.0714
  0.5714   0.8182   0.1429
  0.5714   0.8182   0.2143
  0.5714   0.8182   0.2857
  0.5714   0.8182   0.3571
  0.5714   0.8182   0.4286
  0.5714   0.8182   0.5000
  0.5714   0.8182   0.5714
  0.5714   0.8182   0.6429
  0.5714   0.8182   0.7143
  0.5714   0.8182   0.7857
  0.5714   0.8182   0.8571
  0.5714   0.8182   0.9286
  0.5714   0.9091   0.0000
  0.5714   0.9091   0.0714
  0.5714   0.9091   0.1429
  0.5714   0.9091   0.2143
  0.5714   0.9091   0.2857
  0.5714   0.9091   0.3571
  0.5714   0.9091   0.4286
  0.5714   0.9091   0.5000
  0.5714   0.9091   0.5714
  0.5714   0.9091   0.6429
  0.5714   0.9091   0.7143
  0.5714   0.9091   0.7857
  0.5714   0.9091   0.8571
  0.5714   0.9091   0.9286
  0.7143   0.0000   0.0000
  0.7143   0.0000   0.0714
  0.7143   0.0000   0.1429
  0.7143   0.0000   0.2143
  0.7143   0.0000   0.2857
  0.7143   0.0000   0.3571
  0.7143   0.0000   0.4286
  0.7143   0.0000   0.5000
  0.7143   0.0000   0.5714
  0.7143   0.0000   0.6429
  0.7143   0.0000   0.7143
  0.7143   0.0000   0.7857
  0.7143   0.0000   0.8571
  0.7143   0.0000   0.9286
  0.7143   0.0909   0.0000
  0.7143   0.0909   0.0714
  0.7143   0.0909   0.1429
  0.7143   0.0909   0.2143
  0.7143   0.0909   0.2857
  0.7143   0.0909   0.3571
  0.7143   0.0909   0.4286
  0.7143   0.0909   0.5000
  0.7143   0.0909   0.5714
  0.7143   0.0909   0.6429
  0.7143   0.0909   0.7143
  0.7143   0.0909   0.7857
  0.7143   0.0909   0.8571
  0.7143   0.0909   0.9286
  0.7143   0.1818   0.0000
  0.7143   0.1818   0.0714
  0.7143   0.1818   0.1429
  0.7143   0.1818   0.2143
  0.7143   0.1818   0.2857
  0.7143   0.1818   0.3571
  0.7143   0.1818   0.4286
  0.7143   0.1818   0.5000
  0.7143   0.1818   0.5714
  0.7143   0.1818   0.6429
  0.7143   0.1818   0.7143
  0.7143   0.1818   0.7857
  0.7143   0.1818   0.8571
  0.7143   0.1818   0.9286
  0.7143   0.2727   0.0000
  0.7143   0.2727   0.0714
  0.7143   0.2727   0.1429
  0.7143   0.2727   0.2143
  0.7143   0.2727   0.2857
  0.7143   0.2727   0.3571
  0.7143   0.2727   0.4286
  0.7143   0.2727   0.5000
  0.7143   0.2727   0.5714
  0.7143   0.2727   0.6429
  0.7143   0.2727   0.7143
  0.7143   0.2727   0.7857
  0.7143   0.2727   0.8571
  0.7143   0.2727   0.9286
  0.7143   0.3636   0.0000
  0.7143   0.3636   0.0714
  0.7143   0.3636   0.1429
  0.7143   0.3636   0.2143
  0.7143   0.3636   0.2857
  0.7143   0.3636   0.3571
  0.7143   0.3636   0.4286
  0.7143   0.3636   0.5000
  0.7143   0.3636   0.5714
  0.7143   0.3636   0.6429
  0.7143   0.3636   0.7143
  0.7143   0.3636   0.7857
  0.7143   0.3636   0.8571
  0.7143   0.3636   0.9286
  0.7143   0.4545   0.0000
  0.7143   0.4545   0.0714
  0.7143   0.4545   0.1429
  0.7143   0.4545   0.2143
  0.7143   0.4545   0.2857
  0.7143   0.4545   0.3571
  0.7143   0.4545   0.4286
  0.7143   0.4545   0.5000
  0.7143   0.4545   0.5714
  0.7143   0.4545   0.6429
  0.7143   0.4545   0.7143
  0.7143   0.4545   0.7857
  0.7143   0.4545   0.8571
  0.7143   0.4545   0.9286
  0.7143   0.5455   0.0000
  0.7143   0.5455   0.0714
  0.7143   0.5455   0.1429
  0.7143   0.5455   0.2143
  0.7143   0.5455   0.2857
  0.7143   0.5455   0.3571
  0.7143   0.5455   0.4286
  0.7143   0.5455   0.5000
  0.7143   0.5455   0.5714
  0.7143   0.5455   0.6429
  0.7143   0.5455   0.7143
  0.7143   0.5455   0.7857
  0.7143   0.5455   0.8571
  0.7143   0.5455   0.9286
  0.7143   0.6364   0.0000
  0.7143   0.6364   0.0714
  0.7143   0.6364   0.1429
  0.7143   0.6364   0.2143
  0.7143   0.6364   0.2857
  0.7143   0.6364   0.3571
  0.7143   0.6364   0.4286
  0.7143   0.6364   0.5000
  0.7143   0.6364   0.5714
  0.7143   0.6364   0.6429
  0.7143   0.6364   0.7143
  0.7143   0.6364   0.7857
  0.7143   0.6364   0.8571
  0.7143   0.6364   0.9286
  0.7143   0.7273   0.0000
  0.7143   0.7273   0.0714
  0.7143   0.7273   0.1429
  0.7143   0.7273   0.2143
  0.7143   0.7273   0.2857
  0.7143   0.7273   0.3571
  0.7143   0.7273   0.4286
  0.7143   0.7273   0.5000
  0.7143   0.7273   0.5714
  0.7143   0.7273   0.6429
  0.7143   0.7273   0.7143
  0.7143   0.7273   0.7857
  0.7143   0.7273   0.8571
  0.7143   0.7273   0.9286
  0.7143   0.8182   0.0000
  0.7143   0.8182   0.0714
  0.7143   0.8182   0.1429
  0.7143   0.8182   0.2143
  0.7143   0.8182   0.2857
  0.7143   0.8182   0.3571
  0.7143   0.8182   0.4286
  0.7143   0.8182   0.5000
  0.7143   0.8182   0.5714
  0.7143   0.8182   0.6429
  0.7143   0.8182   0.7143
  0.7143   0.8182   0.7857
  0.7143   0.8182   0.8571
  0.7143   0.8182   0.9286
  0.7143   0.9091   0.0000
  0.7143   0.9091   0.0714
  0.7143   0.9091   0.1429
  0.7143   0.9091   0.2143
  0.7143   0.9091   0.2857
  0.7143   0.9091   0.3571
  0.7143   0.9091   0.4286
  0.7143   0.9091   0.5000
  0.7143   0.9091   0.5714
  0.7143   0.9091   0.6429
  0.7143   0.9091   0.7143
  0.7143   0.9091   0.7857
  0.7143   0.9091   0.8571
  0.7143   0.9091   0.9286
  0.8571   0.0000   0.0000
  0.8571   0.0000   0.0714
  0.8571   0.0000   0.1429
  0.8571   0.0000   0.2143
  0.8571   0.0000   0.2857
  0.8571   0.0000   0.3571
  0.8571   0.0000   0.4286
  0.8571   0.0000   0.5000
  0.8571   0.0000   0.5714
  0.8571   0.0000   0.6429
  0.8571   0.0000   0.7143
  0.8571   0.0000   0.7857
  0.8571   0.0000   0.8571
  0.8571   0.0000   0.9286
  0.8571   0.0909   0.0000
  0.8571   0.0909   0.0714
  0.8571   0.0909   0.1429
  0.8571   0.0909   0.2143
  0.8571   0.0909   0.2857
  0.8571   0.0909   0.3571
  0.8571   0.0909   0.4286
  0.8571   0.0909   0.5000
  0.8571   0.0909   0.5714
  0.8571   0.0909   0.6429
  0.8571   0.0909   0.7143
  0.8571   0.0909   0.7857
  0.8571   0.0909   0.8571
  0.8571   0.0909   0.9286
  0.8571   0.1818   0.0000
  0.8571   0.1818   0.0714
  0.8571   0.1818   0.1429
  0.8571   0.1818   0.2143
  0.8571   0.1818   0.2857
  0.8571   0.1818   0.3571
  0.8571   0.1818   0.4286
  0.8571   0.1818   0.5000
  0.8571   0.1818   0.5714
  0.8571   0.1818   0.6429
  0.8571   0.1818   0.7143
  0.8571   0.1818   0.7857
  0.8571   0.1818   0.8571
  0.8571   0.1818   0.9286
  0.8571   0.2727   0.0000
  0.8571   0.2727   0.0714
  0.8571   0.2727   0.1429
  0.8571   0.2727   0.2143
  0.8571   0.2727   0.2857
  0.8571   0.2727   0.3571
  0.8571   0.2727   0.4286
  0.8571   0.2727   0.5000
  0.8571   0.2727   0.5714
  0.8571   0.2727   0.6429
  0.8571   0.2727   0.7143
  0.8571   0.2727   0.7857
  0.8571   0.2727   0.8571
  0.8571   0.2727   0.9286
  0.8571   0.3636   0.0000
  0.8571   0.3636   0.0714
  0.8571   0.3636   0.1429
  0.8571   0.3636   0.2143
  0.8571   0.3636   0.2857
  0.8571   0.3636   0.3571
  0.8571   0.3636   0.4286
  0.8571   0.3636   0.5000
  0.8571   0.3636   0.5714
  0.8571   0.3636   0.6429
  0.8571   0.3636   0.7143
  0.8571   0.3636   0.7857
  0.8571   0.3636   0.8571
  0.8571   0.3636   0.9286
  0.8571   0.4545   0.0000
  0.8571   0.4545   0.0714
  0.8571   0.4545   0.1429
  0.8571   0.4545   0.2143
  0.8571   0.4545   0.2857
  0.8571   0.4545   0.3571
  0.8571   0.4545   0.4286
  0.8571   0.4545   0.5000
  0.8571   0.4545   0.5714
  0.8571   0.4545   0.6429
  0.8571   0.4545   0.7143
  0.8571   0.4545   0.7857
  0.8571   0.4545   0.8571
  0.8571   0.4545   0.9286
  0.8571   0.5455   0.0000
  0.8571   0.5455   0.0714
  0.8571   0.5455   0.1429
  0.8571   0.5455   0.2143
  0.8571   0.5455   0.2857
  0.8571   0.5455   0.3571
  0.8571   0.5455   0.4286
  0.8571   0.5455   0.5000
  0.8571   0.5455   0.5714
  0.8571   0.5455   0.6429
  0.8571   0.5455   0.7143
  0.8571   0.5455   0.7857
  0.8571   0.5455   0.8571
  0.8571   0.5455   0.9286
  0.8571   0.6364   0.0000
  0.8571   0.6364   0.0714
  0.8571   0.6364   0.1429
  0.8571   0.6364   0.2143
  0.8571   0.6364   0.2857
  0.8571   0.6364   0.3571
  0.8571   0.6364   0.4286
  0.8571   0.6364   0.5000
  0.8571   0.6364   0.5714
  0.8571   0.6364   0.6429
  0.8571   0.6364   0.7143
  0.8571   0.6364   0.7857
  0.8571   0.6364   0.8571
  0.8571   0.6364   0.9286
  0.8571   0.7273   0.0000
  0.8571   0.7273   0.0714
  0.8571   0.7273   0.1429
  0.8571   0.7273   0.2143
  0.8571   0.7273   0.2857
  0.8571   0.7273   0.3571
  0.8571   0.7273   0.4286
  0.8571   0.7273   0.5000
  0.8571   0.7273   0.5714
  0.8571   0.7273   0.6429
  0.8571   0.7273   0.7143
  0.8571   0.7273   0.7857
  0.8571   0.7273   0.8571
  0.8571   0.7273   0.9286
  0.8571   0.8182   0.0000
  0.8571   0.8182   0.0714
  0.8571   0.8182   0.1429
  0.8571   0.8182   0.2143
  0.8571   0.8182   0.2857
  0.8571   0.8182   0.3571
  0.8571   0.8182   0.4286
  0.8571   0.8182   0.5000
  0.8571   0.8182   0.5714
  0.8571   0.8182   0.6429
  0.8571   0.8182   0.7143
  0.8571   0.8182   0.7857
  0.8571   0.8182   0.8571
  0.8571   0.8182   0.9286
  0.8571   0.9091   0.0000
  0.8571   0.9091   0.0714
  0.8571   0.9091   0.1429
  0.8571   0.9091   0.2143
  0.8571   0.9091   0.2857
  0.8571   0.9091   0.3571
  0.8571   0.9091   0.4286
  0.8571   0.9091   0.5000
  0.8571   0.9091   0.5714
  0.8571   0.9091   0.6429
  0.8571   0.9091   0.7143
  0.8571   0.9091   0.7857
  0.8571   0.9091   0.8571
  0.8571   0.9091   0.9286