B4 C12
1.0
5.118203 0.000000 0.000000
2.527053 4.475450 0.000000
0.009935 0.024293 6.934232
B C
4 12
direct
0.667150 0.668936 0.753190 B
0.332850 0.331064 0.246810 B
0.999115 0.998138 0.755045 B
0.000885 0.001862 0.244955 B
0.174757 0.653672 0.755789 C
0.651198 0.177071 0.754030 C
0.175494 0.177335 0.752588 C
0.490828 0.489808 0.755046 C
0.491587 0.013197 0.752001 C
0.014917 0.490038 0.753687 C
0.825243 0.346328 0.244211 C
0.348802 0.822929 0.245970 C
0.824506 0.822665 0.247412 C
0.509172 0.510192 0.244954 C
0.508413 0.986803 0.247999 C
0.985083 0.509962 0.246313 C
