E = -1
1
  5.1882   0.0000   0.0000
 -0.1710   5.2797   0.0000
 -0.4397  -0.5414   5.5660
H
1100
Direct
  0.0000   0.0000   0.0000
  0.0000   0.0000   0.0909
  0.0000   0.0000   0.1818
  0.0000   0.0000   0.2727
  0.0000   0.0000   0.3636
  0.0000   0.0000   0.4545
  0.0000   0.0000   0.5455
  0.0000   0.0000   0.6364
  0.0000   0.0000   0.7273
  0.0000   0.0000   0.8182
  0.0000   0.0000   0.9091
  0.0000   0.1000   0.0000
  0.0000   0.1000   0.0909
  0.0000   0.1000   0.1818
  0.0000   0.1000   0.2727
  0.0000   0.1000   0.3636
  0.0000   0.1000   0.4545
  0.0000   0.1000   0.5455
  0.0000   0.1000   0.6364
  0.0000   0.1000   0.7273
  0.0000   0.1000   0.8182
  0.0000   0.1000   0.9091
  0.0000   0.2000   0.0000
  0.0000   0.2000   0.0909
  0.0000   0.2000   0.1818
  0.0000   0.2000   0.2727
  0.0000   0.2000   0.3636
  0.0000   0.2000   0.4545
  0.0000   0.2000   0.5455
  0.0000   0.2000   0.6364
  0.0000   0.2000   0.7273
  0.0000   0.2000   0.8182
  0.0000   0.2000   0.9091
  0.0000   0.3000   0.0000
  0.0000   0.3000   0.0909
  0.0000   0.3000   0.1818
  0.0000   0.3000   0.2727
  0.0000   0.3000   0.3636
  0.0000   0.3000   0.4545
  0.0000   0.3000   0.5455
  0.0000   0.3000   0.6364
  0.0000   0.3000   0.7273
  0.0000   0.3000   0.8182
  0.0000   0.3000   0.9091
  0.0000   0.4000   0.0000
  0.0000   0.4000   0.0909
  0.0000   0.4000   0.1818
  0.0000   0.4000   0.2727
  0.0000   0.4000   0.3636
  0.0000   0.4000   0.4545
  0.0000   0.4000   0.5455
  0.0000   0.4000   0.6364
  0.0000   0.4000   0.7273
  0.0000   0.4000   0.8182
  0.0000   0.4000   0.9091
  0.0000   0.5000   0.0000
  0.0000   0.5000   0.0909
  0.0000   0.5000   0.1818
  0.0000   0.5000   0.2727
  0.0000   0.5000   0.3636
  0.0000   0.5000   0.4545
  0.0000   0.5000   0.5455
  0.0000   0.5000   0.6364
  0.0000   0.5000   0.7273
  0.0000   0.5000   0.8182
  0.0000   0.5000   0.9091
  0.0000   0.6000   0.0000
  0.0000   0.6000   0.0909
  0.0000   0.6000   0.1818
  0.0000   0.6000   0.2727
  0.0000   0.6000   0.3636
  0.0000   0.6000   0.4545
  0.0000   0.6000   0.5455
  0.0000   0.6000   0.6364
  0.0000   0.6000   0.7273
  0.0000   0.6000   0.8182
  0.0000   0.6000   0.9091
  0.0000   0.7000   0.0000
  0.0000   0.7000   0.0909
  0.0000   0.7000   0.1818
  0.0000   0.7000   0.2727
  0.0000   0.7000   0.3636
  0.0000   0.7000   0.4545
  0.0000   0.7000   0.5455
  0.0000   0.7000   0.6364
  0.0000   0.7000   0.7273
  0.0000   0.7000   0.8182
  0.0000   0.7000   0.9091
  0.0000   0.8000   0.0000
  0.0000   0.8000   0.0909
  0.0000   0.8000   0.1818
  0.0000   0.8000   0.2727
  0.0000   0.8000   0.3636
  0.0000   0.8000   0.4545
  0.0000   0.8000   0.5455
  0.0000   0.8000   0.6364
  0.0000   0.8000   0.7273
  0.0000   0.8000   0.8182
  0.0000   0.8000   0.9091
  0.0000   0.9000   0.0000
  0.0000   0.9000   0.0909
  0.0000   0.9000   0.1818
  0.0000   0.9000   0.2727
  0.0000   0.9000   0.3636
  0.0000   0.9000   0.4545
  0.0000   0.9000   0.5455
  0.0000   0.9000   0.6364
  0.0000   0.9000   0.7273
  0.0000   0.9000   0.8182
  0.0000   0.9000   0.9091
  0.1000   0.0000   0.0000
  0.1000   0.0000   0.0909
  0.1000   0.0000   0.1818
  0.1000   0.0000   0.2727
  0.1000   0.0000   0.3636
  0.1000   0.0000   0.4545
  0.1000   0.0000   0.5455
  0.1000   0.0000   0.6364
  0.1000   0.0000   0.7273
  0.1000   0.0000   0.8182
  0.1000   0.0000   0.9091
  0.1000   0.1000   0.0000
  0.1000   0.1000   0.0909
  0.1000   0.1000   0.1818
  0.1000   0.1000   0.2727
  0.1000   0.1000   0.3636
  0.1000   0.1000   0.4545
  0.1000   0.1000   0.5455
  0.1000   0.1000   0.6364
  0.1000   0.1000   0.7273
  0.1000   0.1000   0.8182
  0.1000   0.1000   0.9091
  0.1000   0.2000   0.0000
  0.1000   0.2000   0.0909
  0.1000   0.2000   0.1818
  0.1000   0.2000   0.2727
  0.1000   0.2000   0.3636
  0.1000   0.2000   0.4545
  0.1000   0.2000   0.5455
  0.1000   0.2000   0.6364
  0.1000   0.2000   0.7273
  0.1000   0.2000   0.8182
  0.1000   0.2000   0.9091
  0.1000   0.3000   0.0000
  0.1000   0.3000   0.0909
  0.1000   0.3000   0.1818
  0.1000   0.3000   0.2727
  0.1000   0.3000   0.3636
  0.1000   0.3000   0.4545
  0.1000   0.3000   0.5455
  0.1000   0.3000   0.6364
  0.1000   0.3000   0.7273
  0.1000   0.3000   0.8182
  0.1000   0.3000   0.9091
  0.1000   0.4000   0.0000
  0.1000   0.4000   0.0909
  0.1000   0.4000   0.1818
  0.1000   0.4000   0.2727
  0.1000   0.4000   0.3636
  0.1000   0.4000   0.4545
  0.1000   0.4000   0.5455
  0.1000   0.4000   0.6364
  0.1000   0.4000   0.7273
  0.1000   0.4000   0.8182
  0.1000   0.4000   0.9091
  0.1000   0.5000   0.0000
  0.1000   0.5000   0.0909
  0.1000   0.5000   0.1818
  0.1000   0.5000   0.2727
  0.1000   0.5000   0.3636
  0.1000   0.5000   0.4545
  0.1000   0.5000   0.5455
  0.1000   0.5000   0.6364
  0.1000   0.5000   0.7273
  0.1000   0.5000   0.8182
  0.1000   0.5000   0.9091
  0.1000   0.6000   0.0000
  0.1000   0.6000   0.0909
  0.1000   0.6000   0.1818
  0.1000   0.6000   0.2727
  0.1000   0.6000   0.3636
  0.1000   0.6000   0.4545
  0.1000   0.6000   0.5455
  0.1000   0.6000   0.6364
  0.1000   0.6000   0.7273
  0.1000   0.6000   0.8182
  0.1000   0.6000   0.9091
  0.1000   0.7000   0.0000
  0.1000   0.7000   0.0909
  0.1000   0.7000   0.1818
  0.1000   0.7000   0.2727
  0.1000   0.7000   0.3636
  0.1000   0.7000   0.4545
  0.1000   0.7000   0.5455
  0.1000   0.7000   0.6364
  0.1000   0.7000   0.7273
  0.1000   0.7000   0.8182
  0.1000   0.7000   0.9091
  0.1000   0.8000   0.0000
  0.1000   0.8000   0.0909
  0.1000   0.8000   0.1818
  0.1000   0.8000   0.2727
  0.1000   0.8000   0.3636
  0.1000   0.8000   0.4545
  0.1000   0.8000   0.5455
  0.1000   0.8000   0.6364
  0.1000   0.8000   0.7273
  0.1000   0.8000   0.8182
  0.1000   0.8000   0.9091
  0.1000   0.9000   0.0000
  0.1000   0.9000   0.0909
  0.1000   0.9000   0.1818
  0.1000   0.9000   0.2727
  0.1000   0.9000   0.3636
  0.1000   0.9000   0.4545
  0.1000   0.9000   0.5455
  0.1000   0.9000   0.6364
  0.1000   0.9000   0.7273
  0.1000   0.9000   0.8182
  0.1000   0.9000   0.9091
  0.2000   0.0000   0.0000
  0.2000   0.0000   0.0909
  0.2000   0.0000   0.1818
  0.2000   0.0000   0.2727
  0.2000   0.0000   0.3636
  0.2000   0.0000   0.4545
  0.2000   0.0000   0.5455
  0.2000   0.0000   0.6364
  0.2000   0.0000   0.7273
  0.2000   0.0000   0.8182
  0.2000   0.0000   0.9091
  0.2000   0.1000   0.0000
  0.2000   0.1000   0.0909
  0.2000   0.1000   0.1818
  0.2000   0.1000   0.2727
  0.2000   0.1000   0.3636
  0.2000   0.1000   0.4545
  0.2000   0.1000   0.5455
  0.2000   0.1000   0.6364
  0.2000   0.1000   0.7273
  0.2000   0.1000   0.8182
  0.2000   0.1000   0.9091
  0.2000   0.2000   0.0000
  0.2000   0.2000   0.0909
  0.2000   0.2000   0.1818
  0.2000   0.2000   0.2727
  0.2000   0.2000   0.3636
  0.2000   0.2000   0.4545
  0.2000   0.2000   0.5455
  0.2000   0.2000   0.6364
  0.2000   0.2000   0.7273
  0.2000   0.2000   0.8182
  0.2000   0.2000   0.9091
  0.2000   0.3000   0.0000
  0.2000   0.3000   0.0909
  0.2000   0.3000   0.1818
  0.2000   0.3000   0.2727
  0.2000   0.3000   0.3636
  0.2000   0.3000   0.4545
  0.2000   0.3000   0.5455
  0.2000   0.3000   0.6364
  0.2000   0.3000   0.7273
  0.2000   0.3000   0.8182
  0.2000   0.3000   0.9091
  0.2000   0.4000   0.0000
  0.2000   0.4000   0.0909
  0.2000   0.4000   0.1818
  0.2000   0.4000   0.2727
  0.2000   0.4000   0.3636
  0.2000   0.4000   0.4545
  0.2000   0.4000   0.5455
  0.2000   0.4000   0.6364
  0.2000   0.4000   0.7273
  0.2000   0.4000   0.8182
  0.2000   0.4000   0.9091
  0.2000   0.5000   0.0000
  0.2000   0.5000   0.0909
  0.2000   0.5000   0.1818
  0.2000   0.5000   0.2727
  0.2000   0.5000   0.3636
  0.2000   0.5000   0.4545
  0.2000   0.5000   0.5455
  0.2000   0.5000   0.6364
  0.2000   0.5000   0.7273
  0.2000   0.5000   0.8182
  0.2000   0.5000   0.9091
  0.2000   0.6000   0.0000
  0.2000   0.6000   0.0909
  0.2000   0.6000   0.1818
  0.2000   0.6000   0.2727
  0.2000   0.6000   0.3636
  0.2000   0.6000   0.4545
  0.2000   0.6000   0.5455
  0.2000   0.6000   0.6364
  0.2000   0.6000   0.7273
  0.2000   0.6000   0.8182
  0.2000   0.6000   0.9091
  0.2000   0.7000   0.0000
  0.2000   0.7000   0.0909
  0.2000   0.7000   0.1818
  0.2000   0.7000   0.2727
  0.2000   0.7000   0.3636
  0.2000   0.7000   0.4545
  0.2000   0.7000   0.5455
  0.2000   0.7000   0.6364
  0.2000   0.7000   0.7273
  0.2000   0.7000   0.8182
  0.2000   0.7000   0.9091
  0.2000   0.8000   0.0000
  0.2000   0.8000   0.0909
  0.2000   0.8000   0.1818
  0.2000   0.8000   0.2727
  0.2000   0.8000   0.3636
  0.2000   0.8000   0.4545
  0.2000   0.8000   0.5455
  0.2000   0.8000   0.6364
  0.2000   0.8000   0.7273
  0.2000   0.8000   0.8182
  0.2000   0.8000   0.9091
  0.2000   0.9000   0.0000
  0.2000   0.9000   0.0909
  0.2000   0.9000   0.1818
  0.2000   0.9000   0.2727
  0.2000   0.9000   0.3636
  0.2000   0.9000   0.4545
  0.2000   0.9000   0.5455
  0.2000   0.9000   0.6364
  0.2000   0.9000   0.7273
  0.2000   0.9000   0.8182
  0.2000   0.9000   0.9091
  0.3000   0.0000   0.0000
  0.3000   0.0000   0.0909
  0.3000   0.0000   0.1818
  0.3000   0.0000   0.2727
  0.3000   0.0000   0.3636
  0.3000   0.0000   0.4545
  0.3000   0.0000   0.5455
  0.3000   0.0000   0.6364
  0.3000   0.0000   0.7273
  0.3000   0.0000   0.8182
  0.3000   0.0000   0.9091
  0.3000   0.1000   0.0000
  0.3000   0.1000   0.0909
  0.3000   0.1000   0.1818
  0.3000   0.1000   0.2727
  0.3000   0.1000   0.3636
  0.3000   0.1000   0.4545
  0.3000   0.1000   0.5455
  0.3000   0.1000   0.6364
  0.3000   0.1000   0.7273
  0.3000   0.1000   0.8182
  0.3000   0.1000   0.9091
  0.3000   0.2000   0.0000
  0.3000   0.2000   0.0909
  0.3000   0.2000   0.1818
  0.3000   0.2000   0.2727
  0.3000   0.2000   0.3636
  0.3000   0.2000   0.4545
  0.3000   0.2000   0.5455
  0.3000   0.2000   0.6364
  0.3000   0.2000   0.7273
  0.3000   0.2000   0.8182
  0.3000   0.2000   0.9091
  0.3000   0.3000   0.0000
  0.3000   0.3000   0.0909
  0.3000   0.3000   0.1818
  0.3000   0.3000   0.2727
  0.3000   0.3000   0.3636
  0.3000   0.3000   0.4545
  0.3000   0.3000   0.5455
  0.3000   0.3000   0.6364
  0.3000   0.3000   0.7273
  0.3000   0.3000   0.8182
  0.3000   0.3000   0.9091
  0.3000   0.4000   0.0000
  0.3000   0.4000   0.0909
  0.3000   0.4000   0.1818
  0.3000   0.4000   0.2727
  0.3000   0.4000   0.3636
  0.3000   0.4000   0.4545
  0.3000   0.4000   0.5455
  0.3000   0.4000   0.6364
  0.3000   0.4000   0.7273
  0.3000   0.4000   0.8182
  0.3000   0.4000   0.9091
  0.3000   0.5000   0.0000
  0.3000   0.5000   0.0909
  0.3000   0.5000   0.1818
  0.3000   0.5000   0.2727
  0.3000   0.5000   0.3636
  0.3000   0.5000   0.4545
  0.3000   0.5000   0.5455
  0.3000   0.5000   0.6364
  0.3000   0.5000   0.7273
  0.3000   0.5000   0.8182
  0.3000   0.5000   0.9091
  0.3000   0.6000   0.0000
  0.3000   0.6000   0.0909
  0.3000   0.6000   0.1818
  0.3000   0.6000   0.2727
  0.3000   0.6000   0.3636
  0.3000   0.6000   0.4545
  0.3000   0.6000   0.5455
  0.3000   0.6000   0.6364
  0.3000   0.6000   0.7273
  0.3000   0.6000   0.8182
  0.3000   0.6000   0.9091
  0.3000   0.7000   0.0000
  0.3000   0.7000   0.0909
  0.3000   0.7000   0.1818
  0.3000   0.7000   0.2727
  0.3000   0.7000   0.3636
  0.3000   0.7000   0.4545
  0.3000   0.7000   0.5455
  0.3000   0.7000   0.6364
  0.3000   0.7000   0.7273
  0.3000   0.7000   0.8182
  0.3000   0.7000   0.9091
  0.3000   0.8000   0.0000
  0.3000   0.8000   0.0909
  0.3000   0.8000   0.1818
  0.3000   0.8000   0.2727
  0.3000   0.8000   0.3636
  0.3000   0.8000   0.4545
  0.3000   0.8000   0.5455
  0.3000   0.8000   0.6364
  0.3000   0.8000   0.7273
  0.3000   0.8000   0.8182
  0.3000   0.8000   0.9091
  0.3000   0.9000   0.0000
  0.3000   0.9000   0.0909
  0.3000   0.9000   0.1818
  0.3000   0.9000   0.2727
  0.3000   0.9000   0.3636
  0.3000   0.9000   0.4545
  0.3000   0.9000   0.5455
  0.3000   0.9000   0.6364
  0.3000   0.9000   0.7273
  0.3000   0.9000   0.8182
  0.3000   0.9000   0.9091
  0.4000   0.0000   0.0000
  0.4000   0.0000   0.0909
  0.4000   0.0000   0.1818
  0.4000   0.0000   0.2727
  0.4000   0.0000   0.3636
  0.4000   0.0000   0.4545
  0.4000   0.0000   0.5455
  0.4000   0.0000   0.6364
  0.4000   0.0000   0.7273
  0.4000   0.0000   0.8182
  0.4000   0.0000   0.9091
  0.4000   0.1000   0.0000
  0.4000   0.1000   0.0909
  0.4000   0.1000   0.1818
  0.4000   0.1000   0.2727
  0.4000   0.1000   0.3636
  0.4000   0.1000   0.4545
  0.4000   0.1000   0.5455
  0.4000   0.1000   0.6364
  0.4000   0.1000   0.7273
  0.4000   0.1000   0.8182
  0.4000   0.1000   0.9091
  0.4000   0.2000   0.0000
  0.4000   0.2000   0.0909
  0.4000   0.2000   0.1818
  0.4000   0.2000   0.2727
  0.4000   0.2000   0.3636
  0.4000   0.2000   0.4545
  0.4000   0.2000   0.5455
  0.4000   0.2000   0.6364
  0.4000   0.2000   0.7273
  0.4000   0.2000   0.8182
  0.4000   0.2000   0.9091
  0.4000   0.3000   0.0000
  0.4000   0.3000   0.0909
  0.4000   0.3000   0.1818
  0.4000   0.3000   0.2727
  0.4000   0.3000   0.3636
  0.4000   0.3000   0.4545
  0.4000   0.3000   0.5455
  0.4000   0.3000   0.6364
  0.4000   0.3000   0.7273
  0.4000   0.3000   0.8182
  0.4000   0.3000   0.9091
  0.4000   0.4000   0.0000
  0.4000   0.4000   0.0909
  0.4000   0.4000   0.1818
  0.4000   0.4000   0.2727
  0.4000   0.4000   0.3636
  0.4000   0.4000   0.4545
  0.4000   0.4000   0.5455
  0.4000   0.4000   0.6364
  0.4000   0.4000   0.7273
  0.4000   0.4000   0.8182
  0.4000   0.4000   0.9091
  0.4000   0.5000   0.0000
  0.4000   0.5000   0.0909
  0.4000   0.5000   0.1818
  0.4000   0.5000   0.2727
  0.4000   0.5000   0.3636
  0.4000   0.5000   0.4545
  0.4000   0.5000   0.5455
  0.4000   0.5000   0.6364
  0.4000   0.5000   0.7273
  0.4000   0.5000   0.8182
  0.4000   0.5000   0.9091
  0.4000   0.6000   0.0000
  0.4000   0.6000   0.0909
  0.4000   0.6000   0.1818
  0.4000   0.6000   0.2727
  0.4000   0.6000   0.3636
  0.4000   0.6000   0.4545
  0.4000   0.6000   0.5455
  0.4000   0.6000   0.6364
  0.4000   0.6000   0.7273
  0.4000   0.6000   0.8182
  0.4000   0.6000   0.9091
  0.4000   0.7000   0.0000
  0.4000   0.7000   0.0909
  0.4000   0.7000   0.1818
  0.4000   0.7000   0.2727
  0.4000   0.7000   0.3636
  0.4000   0.7000   0.4545
  0.4000   0.7000   0.5455
  0.4000   0.7000   0.6364
  0.4000   0.7000   0.7273
  0.4000   0.7000   0.8182
  0.4000   0.7000   0.9091
  0.4000   0.8000   0.0000
  0.4000   0.8000   0.0909
  0.4000   0.8000   0.1818
  0.4000   0.8000   0.2727
  0.4000   0.8000   0.3636
  0.4000   0.8000   0.4545
  0.4000   0.8000   0.5455
  0.4000   0.8000   0.6364
  0.4000   0.8000   0.7273
  0.4000   0.8000   0.8182
  0.4000   0.8000   0.9091
  0.4000   0.9000   0.0000
  0.4000   0.9000   0.0909
  0.4000   0.9000   0.1818
  0.4000   0.9000   0.2727
  0.4000   0.9000   0.3636
  0.4000   0.9000   0.4545
  0.4000   0.9000   0.5455
  0.4000   0.9000   0.6364
  0.4000   0.9000   0.7273
  0.4000   0.9000   0.8182
  0.4000   0.9000   0.9091
  0.5000   0.0000   0.0000
  0.5000   0.0000   0.0909
  0.5000   0.0000   0.1818
  0.5000   0.0000   0.2727
  0.5000   0.0000   0.3636
  0.5000   0.0000   0.4545
  0.5000   0.0000   0.5455
  0.5000   0.0000   0.6364
  0.5000   0.0000   0.7273
  0.5000   0.0000   0.8182
  0.5000   0.0000   0.9091
  0.5000   0.1000   0.0000
  0.5000   0.1000   0.0909
  0.5000   0.1000   0.1818
  0.5000   0.1000   0.2727
  0.5000   0.1000   0.3636
  0.5000   0.1000   0.4545
  0.5000   0.1000   0.5455
  0.5000   0.1000   0.6364
  0.5000   0.1000   0.7273
  0.5000   0.1000   0.8182
  0.5000   0.1000   0.9091
  0.5000   0.2000   0.0000
  0.5000   0.2000   0.0909
  0.5000   0.2000   0.1818
  0.5000   0.2000   0.2727
  0.5000   0.2000   0.3636
  0.5000   0.2000   0.4545
  0.5000   0.2000   0.5455
  0.5000   0.2000   0.6364
  0.5000   0.2000   0.7273
  0.5000   0.2000   0.8182
  0.5000   0.2000   0.9091
  0.5000   0.3000   0.0000
  0.5000   0.3000   0.0909
  0.5000   0.3000   0.1818
  0.5000   0.3000   0.2727
  0.5000   0.3000   0.3636
  0.5000   0.3000   0.4545
  0.5000   0.3000   0.5455
  0.5000   0.3000   0.6364
  0.5000   0.3000   0.7273
  0.5000   0.3000   0.8182
  0.5000   0.3000   0.9091
  0.5000   0.4000   0.0000
  0.5000   0.4000   0.0909
  0.5000   0.4000   0.1818
  0.5000   0.4000   0.2727
  0.5000   0.4000   0.3636
  0.5000   0.4000   0.4545
  0.5000   0.4000   0.5455
  0.5000   0.4000   0.6364
  0.5000   0.4000   0.7273
  0.5000   0.4000   0.8182
  0.5000   0.4000   0.9091
  0.5000   0.5000   0.0000
  0.5000   0.5000   0.0909
  0.5000   0.5000   0.1818
  0.5000   0.5000   0.2727
  0.5000   0.5000   0.3636
  0.5000   0.5000   0.4545
  0.5000   0.5000   0.5455
  0.5000   0.5000   0.6364
  0.5000   0.5000   0.7273
  0.5000   0.5000   0.8182
  0.5000   0.5000   0.9091
  0.5000   0.6000   0.0000
  0.5000   0.6000   0.0909
  0.5000   0.6000   0.1818
  0.5000   0.6000   0.2727
  0.5000   0.6000   0.3636
  0.5000   0.6000   0.4545
  0.5000   0.6000   0.5455
  0.5000   0.6000   0.6364
  0.5000   0.6000   0.7273
  0.5000   0.6000   0.8182
  0.5000   0.6000   0.9091
  0.5000   0.7000   0.0000
  0.5000   0.7000   0.0909
  0.5000   0.7000   0.1818
  0.5000   0.7000   0.2727
  0.5000   0.7000   0.3636
  0.5000   0.7000   0.4545
  0.5000   0.7000   0.5455
  0.5000   0.7000   0.6364
  0.5000   0.7000   0.7273
  0.5000   0.7000   0.8182
  0.5000   0.7000   0.9091
  0.5000   0.8000   0.0000
  0.5000   0.8000   0.0909
  0.5000   0.8000   0.1818
  0.5000   0.8000   0.2727
  0.5000   0.8000   0.3636
  0.5000   0.8000   0.4545
  0.5000   0.8000   0.5455
  0.5000   0.8000   0.6364
  0.5000   0.8000   0.7273
  0.5000   0.8000   0.8182
  0.5000   0.8000   0.9091
  0.5000   0.9000   0.0000
  0.5000   0.9000   0.0909
  0.5000   0.9000   0.1818
  0.5000   0.9000   0.2727
  0.5000   0.9000   0.3636
  0.5000   0.9000   0.4545
  0.5000   0.9000   0.5455
  0.5000   0.9000   0.6364
  0.5000   0.9000   0.7273
  0.5000   0.9000   0.8182
  0.5000   0.9000   0.9091
  0.6000   0.0000   0.0000
  0.6000   0.0000   0.0909
  0.6000   0.0000   0.1818
  0.6000   0.0000   0.2727
  0.6000   0.0000   0.3636
  0.6000   0.0000   0.4545
  0.6000   0.0000   0.5455
  0.6000   0.0000   0.6364
  0.6000   0.0000   0.7273
  0.6000   0.0000   0.8182
  0.6000   0.0000   0.9091
  0.6000   0.1000   0.0000
  0.6000   0.1000   0.0909
  0.6000   0.1000   0.1818
  0.6000   0.1000   0.2727
  0.6000   0.1000   0.3636
  0.6000   0.1000   0.4545
  0.6000   0.1000   0.5455
  0.6000   0.1000   0.6364
  0.6000   0.1000   0.7273
  0.6000   0.1000   0.8182
  0.6000   0.1000   0.9091
  0.6000   0.2000   0.0000
  0.6000   0.2000   0.0909
  0.6000   0.2000   0.1818
  0.6000   0.2000   0.2727
  0.6000   0.2000   0.3636
  0.6000   0.2000   0.4545
  0.6000   0.2000   0.5455
  0.6000   0.2000   0.6364
  0.6000   0.2000   0.7273
  0.6000   0.2000   0.8182
  0.6000   0.2000   0.9091
  0.6000   0.3000   0.0000
  0.6000   0.3000   0.0909
  0.6000   0.3000   0.1818
  0.6000   0.3000   0.2727
  0.6000   0.3000   0.3636
  0.6000   0.3000   0.4545
  0.6000   0.3000   0.5455
  0.6000   0.3000   0.6364
  0.6000   0.3000   0.7273
  0.6000   0.3000   0.8182
  0.6000   0.3000   0.9091
  0.6000   0.4000   0.0000
  0.6000   0.4000   0.0909
  0.6000   0.4000   0.1818
  0.6000   0.4000   0.2727
  0.6000   0.4000   0.3636
  0.6000   0.4000   0.4545
  0.6000   0.4000   0.5455
  0.6000   0.4000   0.6364
  0.6000   0.4000   0.7273
  0.6000   0.4000   0.8182
  0.6000   0.4000   0.9091
  0.6000   0.5000   0.0000
  0.6000   0.5000   0.0909
  0.6000   0.5000   0.1818
  0.6000   0.5000   0.2727
  0.6000   0.5000   0.3636
  0.6000   0.5000   0.4545
  0.6000   0.5000   0.5455
  0.6000   0.5000   0.6364
  0.6000   0.5000   0.7273
  0.6000   0.5000   0.8182
  0.6000   0.5000   0.9091
  0.6000   0.6000   0.0000
  0.6000   0.6000   0.0909
  0.6000   0.6000   0.1818
  0.6000   0.6000   0.2727
  0.6000   0.6000   0.3636
  0.6000   0.6000   0.4545
  0.6000   0.6000   0.5455
  0.6000   0.6000   0.6364
  0.6000   0.6000   0.7273
  0.6000   0.6000   0.8182
  0.6000   0.6000   0.9091
  0.6000   0.7000   0.0000
  0.6000   0.7000   0.0909
  0.6000   0.7000   0.1818
  0.6000   0.7000   0.2727
  0.6000   0.7000   0.3636
  0.6000   0.7000   0.4545
  0.6000   0.7000   0.5455
  0.6000   0.7000   0.6364
  0.6000   0.7000   0.7273
  0.6000   0.7000   0.8182
  0.6000   0.7000   0.9091
  0.6000   0.8000   0.0000
  0.6000   0.8000   0.0909
  0.6000   0.8000   0.1818
  0.6000   0.8000   0.2727
  0.6000   0.8000   0.3636
  0.6000   0.8000   0.4545
  0.6000   0.8000   0.5455
  0.6000   0.8000   0.6364
  0.6000   0.8000   0.7273
  0.6000   0.8000   0.8182
  0.6000   0.8000   0.9091
  0.6000   0.9000   0.0000
  0.6000   0.9000   0.0909
  0.6000   0.9000   0.1818
  0.6000   0.9000   0.2727
  0.6000   0.9000   0.3636
  0.6000   0.9000   0.4545
  0.6000   0.9000   0.5455
  0.6000   0.9000   0.6364
  0.6000   0.9000   0.7273
  0.6000   0.9000   0.8182
  0.6000   0.9000   0.9091
  0.7000   0.0000   0.0000
  0.7000   0.0000   0.0909
  0.7000   0.0000   0.1818
  0.7000   0.0000   0.2727
  0.7000   0.0000   0.3636
  0.7000   0.0000   0.4545
  0.7000   0.0000   0.5455
  0.7000   0.0000   0.6364
  0.7000   0.0000   0.7273
  0.7000   0.0000   0.8182
  0.7000   0.0000   0.9091
  0.7000   0.1000   0.0000
  0.7000   0.1000   0.0909
  0.7000   0.1000   0.1818
  0.7000   0.1000   0.2727
  0.7000   0.1000   0.3636
  0.7000   0.1000   0.4545
  0.7000   0.1000   0.5455
  0.7000   0.1000   0.6364
  0.7000   0.1000   0.7273
  0.7000   0.1000   0.8182
  0.7000   0.1000   0.9091
  0.7000   0.2000   0.0000
  0.7000   0.2000   0.0909
  0.7000   0.2000   0.1818
  0.7000   0.2000   0.2727
  0.7000   0.2000   0.3636
  0.7000   0.2000   0.4545
  0.7000   0.2000   0.5455
  0.7000   0.2000   0.6364
  0.7000   0.2000   0.7273
  0.7000   0.2000   0.8182
  0.7000   0.2000   0.9091
  0.7000   0.3000   0.0000
  0.7000   0.3000   0.0909
  0.7000   0.3000   0.1818
  0.7000   0.3000   0.2727
  0.7000   0.3000   0.3636
  0.7000   0.3000   0.4545
  0.7000   0.3000   0.5455
  0.7000   0.3000   0.6364
  0.7000   0.3000   0.7273
  0.7000   0.3000   0.8182
  0.7000   0.3000   0.9091
  0.7000   0.4000   0.0000
  0.7000   0.4000   0.0909
  0.7000   0.4000   0.1818
  0.7000   0.4000   0.2727
  0.7000   0.4000   0.3636
  0.7000   0.4000   0.4545
  0.7000   0.4000   0.5455
  0.7000   0.4000   0.6364
  0.7000   0.4000   0.7273
  0.7000   0.4000   0.8182
  0.7000   0.4000   0.9091
  0.7000   0.5000   0.0000
  0.7000   0.5000   0.0909
  0.7000   0.5000   0.1818
  0.7000   0.5000   0.2727
  0.7000   0.5000   0.3636
  0.7000   0.5000   0.4545
  0.7000   0.5000   0.5455
  0.7000   0.5000   0.6364
  0.7000   0.5000   0.7273
  0.7000   0.5000   0.8182
  0.7000   0.5000   0.9091
  0.7000   0.6000   0.0000
  0.7000   0.6000   0.0909
  0.7000   0.6000   0.1818
  0.7000   0.6000   0.2727
  0.7000   0.6000   0.3636
  0.7000   0.6000   0.4545
  0.7000   0.6000   0.5455
  0.7000   0.6000   0.6364
  0.7000   0.6000   0.7273
  0.7000   0.6000   0.8182
  0.7000   0.6000   0.9091
  0.7000   0.7000   0.0000
  0.7000   0.7000   0.0909
  0.7000   0.7000   0.1818
  0.7000   0.7000   0.2727
  0.7000   0.7000   0.3636
  0.7000   0.7000   0.4545
  0.7000   0.7000   0.5455
  0.7000   0.7000   0.6364
  0.7000   0.7000   0.7273
  0.7000   0.7000   0.8182
  0.7000   0.7000   0.9091
  0.7000   0.8000   0.0000
  0.7000   0.8000   0.0909
  0.7000   0.8000   0.1818
  0.7000   0.8000   0.2727
  0.7000   0.8000   0.3636
  0.7000   0.8000   0.4545
  0.7000   0.8000   0.5455
  0.7000   0.8000   0.6364
  0.7000   0.8000   0.7273
  0.7000   0.8000   0.8182
  0.7000   0.8000   0.9091
  0.7000   0.9000   0.0000
  0.7000   0.9000   0.0909
  0.7000   0.9000   0.1818
  0.7000   0.9000   0.2727
  0.7000   0.9000   0.3636
  0.7000   0.9000   0.4545
  0.7000   0.9000   0.5455
  0.7000   0.9000   0.6364
  0.7000   0.9000   0.7273
  0.7000   0.9000   0.8182
  0.7000   0.9000   0.9091
  0.8000   0.0000   0.0000
  0.8000   0.0000   0.0909
  0.8000   0.0000   0.1818
  0.8000   0.0000   0.2727
  0.8000   0.0000   0.3636
  0.8000   0.0000   0.4545
  0.8000   0.0000   0.5455
  0.8000   0.0000   0.6364
  0.8000   0.0000   0.7273
  0.8000   0.0000   0.8182
  0.8000   0.0000   0.9091
  0.8000   0.1000   0.0000
  0.8000   0.1000   0.0909
  0.8000   0.1000   0.1818
  0.8000   0.1000   0.2727
  0.8000   0.1000   0.3636
  0.8000   0.1000   0.4545
  0.8000   0.1000   0.5455
  0.8000   0.1000   0.6364
  0.8000   0.1000   0.7273
  0.8000   0.1000   0.8182
  0.8000   0.1000   0.9091
  0.8000   0.2000   0.0000
  0.8000   0.2000   0.0909
  0.8000   0.2000   0.1818
  0.8000   0.2000   0.2727
  0.8000   0.2000   0.3636
  0.8000   0.2000   0.4545
  0.8000   0.2000   0.5455
  0.8000   0.2000   0.6364
  0.8000   0.2000   0.7273
  0.8000   0.2000   0.8182
  0.8000   0.2000   0.9091
  0.8000   0.3000   0.0000
  0.8000   0.3000   0.0909
  0.8000   0.3000   0.1818
  0.8000   0.3000   0.2727
  0.8000   0.3000   0.3636
  0.8000   0.3000   0.4545
  0.8000   0.3000   0.5455
  0.8000   0.3000   0.6364
  0.8000   0.3000   0.7273
  0.8000   0.3000   0.8182
  0.8000   0.3000   0.9091
  0.8000   0.4000   0.0000
  0.8000   0.4000   0.0909
  0.8000   0.4000   0.1818
  0.8000   0.4000   0.2727
  0.8000   0.4000   0.3636
  0.8000   0.4000   0.4545
  0.8000   0.4000   0.5455
  0.8000   0.4000   0.6364
  0.8000   0.4000   0.7273
  0.8000   0.4000   0.8182
  0.8000   0.4000   0.9091
  0.8000   0.5000   0.0000
  0.8000   0.5000   0.0909
  0.8000   0.5000   0.1818
  0.8000   0.5000   0.2727
  0.8000   0.5000   0.3636
  0.8000   0.5000   0.4545
  0.8000   0.5000   0.5455
  0.8000   0.5000   0.6364
  0.8000   0.5000   0.7273
  0.8000   0.5000   0.8182
  0.8000   0.5000   0.9091
  0.8000   0.6000   0.0000
  0.8000   0.6000   0.0909
  0.8000   0.6000   0.1818
  0.8000   0.6000   0.2727
  0.8000   0.6000   0.3636
  0.8000   0.6000   0.4545
  0.8000   0.6000   0.5455
  0.8000   0.6000   0.6364
  0.8000   0.6000   0.7273
  0.8000   0.6000   0.8182
  0.8000   0.6000   0.9091
  0.8000   0.7000   0.0000
  0.8000   0.7000   0.0909
  0.8000   0.7000   0.1818
  0.8000   0.7000   0.2727
  0.8000   0.7000   0.3636
  0.8000   0.7000   0.4545
  0.8000   0.7000   0.5455
  0.8000   0.7000   0.6364
  0.8000   0.7000   0.7273
  0.8000   0.7000   0.8182
  0.8000   0.7000   0.9091
  0.8000   0.8000   0.0000
  0.8000   0.8000   0.0909
  0.8000   0.8000   0.1818
  0.8000   0.8000   0.2727
  0.8000   0.8000   0.3636
  0.8000   0.8000   0.4545
  0.8000   0.8000   0.5455
  0.8000   0.8000   0.6364
  0.8000   0.8000   0.7273
  0.8000   0.8000   0.8182
  0.8000   0.8000   0.9091
  0.8000   0.9000   0.0000
  0.8000   0.9000   0.0909
  0.8000   0.9000   0.1818
  0.8000   0.9000   0.2727
  0.8000   0.9000   0.3636
  0.8000   0.9000   0.4545
  0.8000   0.9000   0.5455
  0.8000   0.9000   0.6364
  0.8000   0.9000   0.7273
  0.8000   0.9000   0.8182
  0.8000   0.9000   0.9091
  0.9000   0.0000   0.0000
  0.9000   0.0000   0.0909
  0.9000   0.0000   0.1818
  0.9000   0.0000   0.2727
  0.9000   0.0000   0.3636
  0.9000   0.0000   0.4545
  0.9000   0.0000   0.5455
  0.9000   0.0000   0.6364
  0.9000   0.0000   0.7273
  0.9000   0.0000   0.8182
  0.9000   0.0000   0.9091
  0.9000   0.1000   0.0000
  0.9000   0.1000   0.0909
  0.9000   0.1000   0.1818
  0.9000   0.1000   0.2727
  0.9000   0.1000   0.3636
  0.9000   0.1000   0.4545
  0.9000   0.1000   0.5455
  0.9000   0.1000   0.6364
  0.9000   0.1000   0.7273
  0.9000   0.1000   0.8182
  0.9000   0.1000   0.9091
  0.9000   0.2000   0.0000
  0.9000   0.2000   0.0909
  0.9000   0.2000   0.1818
  0.9000   0.2000   0.2727
  0.9000   0.2000   0.3636
  0.9000   0.2000   0.4545
  0.9000   0.2000   0.5455
  0.9000   0.2000   0.6364
  0.9000   0.2000   0.7273
  0.9000   0.2000   0.8182
  0.9000   0.2000   0.9091
  0.9000   0.3000   0.0000
  0.9000   0.3000   0.0909
  0.9000   0.3000   0.1818
  0.9000   0.3000   0.2727
  0.9000   0.3000   0.3636
  0.9000   0.3000   0.4545
  0.9000   0.3000   0.5455
  0.9000   0.3000   0.6364
  0.9000   0.3000   0.7273
  0.9000   0.3000   0.8182
  0.9000   0.3000   0.9091
  0.9000   0.4000   0.0000
  0.9000   0.4000   0.0909
  0.9000   0.4000   0.1818
  0.9000   0.4000   0.2727
  0.9000   0.4000   0.3636
  0.9000   0.4000   0.4545
  0.9000   0.4000   0.5455
  0.9000   0.4000   0.6364
  0.9000   0.4000   0.7273
  0.9000   0.4000   0.8182
  0.9000   0.4000   0.9091
  0.9000   0.5000   0.0000
  0.9000   0.5000   0.0909
  0.9000   0.5000   0.1818
  0.9000   0.5000   0.2727
  0.9000   0.5000   0.3636
  0.9000   0.5000   0.4545
  0.9000   0.5000   0.5455
  0.9000   0.5000   0.6364
  0.9000   0.5000   0.7273
  0.9000   0.5000   0.8182
  0.9000   0.5000   0.9091
  0.9000   0.6000   0.0000
  0.9000   0.6000   0.0909
  0.9000   0.6000   0.1818
  0.9000   0.6000   0.2727
  0.9000   0.6000   0.3636
  0.9000   0.6000   0.4545
  0.9000   0.6000   0.5455
  0.9000   0.6000   0.6364
  0.9000   0.6000   0.7273
  0.9000   0.6000   0.8182
  0.9000   0.6000   0.9091
  0.9000   0.7000   0.0000
  0.9000   0.7000   0.0909
  0.9000   0.7000   0.1818
  0.9000   0.7000   0.2727
  0.9000   0.7000   0.3636
  0.9000   0.7000   0.4545
  0.9000   0.7000   0.5455
  0.9000   0.7000   0.6364
  0.9000   0.7000   0.7273
  0.9000   0.7000   0.8182
  0.9000   0.7000   0.9091
  0.9000   0.8000   0.0000
  0.9000   0.8000   0.0909
  0.9000   0.8000   0.1818
  0.9000   0.8000   0.2727
  0.9000   0.8000   0.3636
  0.9000   0.8000   0.4545
  0.9000   0.8000   0.5455
  0.9000   0.8000   0.6364
  0.9000   0.8000   0.7273
  0.9000   0.8000   0.8182
  0.9000   0.8000   0.9091
  0.9000   0.9000   0.0000
  0.9000   0.9000   0.0909
  0.9000   0.9000   0.1818
  0.9000   0.9000   0.2727
  0.9000   0.9000   0.3636
  0.9000   0.9000   0.4545
  0.9000   0.9000   0.5455
  0.9000   0.9000   0.6364
  0.9000   0.9000   0.7273
  0.9000   0.9000   0.8182
  0.9000   0.9000   0.9091