E = -1
1
5.0000 0.0000 0.0000
0.0000 5.0000 0.0000
0.0000 0.0000 5.0000
H
1
Direct
0.0000 0.0000 0.0000
