E = -1
1
  4.6552  -0.4751  -0.1149
 -1.5742   6.4494   0.3443
 -1.1299   0.1320   5.1198
H
1170
Direct
  0.0000   0.0000   0.0000
  0.0000   0.0000   0.1000
  0.0000   0.0000   0.2000
  0.0000   0.0000   0.3000
  0.0000   0.0000   0.4000
  0.0000   0.0000   0.5000
  0.0000   0.0000   0.6000
  0.0000   0.0000   0.7000
  0.0000   0.0000   0.8000
  0.0000   0.0000   0.9000
  0.0000   0.0769   0.0000
  0.0000   0.0769   0.1000
  0.0000   0.0769   0.2000
  0.0000   0.0769   0.3000
  0.0000   0.0769   0.4000
  0.0000   0.0769   0.5000
  0.0000   0.0769   0.6000
  0.0000   0.0769   0.7000
  0.0000   0.0769   0.8000
  0.0000   0.0769   0.9000
  0.0000   0.1538   0.0000
  0.0000   0.1538   0.1000
  0.0000   0.1538   0.2000
  0.0000   0.1538   0.3000
  0.0000   0.1538   0.4000
  0.0000   0.1538   0.5000
  0.0000   0.1538   0.6000
  0.0000   0.1538   0.7000
  0.0000   0.1538   0.8000
  0.0000   0.1538   0.9000
  0.0000   0.2308   0.0000
  0.0000   0.2308   0.1000
  0.0000   0.2308   0.2000
  0.0000   0.2308   0.3000
  0.0000   0.2308   0.4000
  0.0000   0.2308   0.5000
  0.0000   0.2308   0.6000
  0.0000   0.2308   0.7000
  0.0000   0.2308   0.8000
  0.0000   0.2308   0.9000
  0.0000   0.3077   0.0000
  0.0000   0.3077   0.1000
  0.0000   0.3077   0.2000
  0.0000   0.3077   0.3000
  0.0000   0.3077   0.4000
  0.0000   0.3077   0.5000
  0.0000   0.3077   0.6000
  0.0000   0.3077   0.7000
  0.0000   0.3077   0.8000
  0.0000   0.3077   0.9000
  0.0000   0.3846   0.0000
  0.0000   0.3846   0.1000
  0.0000   0.3846   0.2000
  0.0000   0.3846   0.3000
  0.0000   0.3846   0.4000
  0.0000   0.3846   0.5000
  0.0000   0.3846   0.6000
  0.0000   0.3846   0.7000
  0.0000   0.3846   0.8000
  0.0000   0.3846   0.9000
  0.0000   0.4615   0.0000
  0.0000   0.4615   0.1000
  0.0000   0.4615   0.2000
  0.0000   0.4615   0.3000
  0.0000   0.4615   0.4000
  0.0000   0.4615   0.5000
  0.0000   0.4615   0.6000
  0.0000   0.4615   0.7000
  0.0000   0.4615   0.8000
  0.0000   0.4615   0.9000
  0.0000   0.5385   0.0000
  0.0000   0.5385   0.1000
  0.0000   0.5385   0.2000
  0.0000   0.5385   0.3000
  0.0000   0.5385   0.4000
  0.0000   0.5385   0.5000
  0.0000   0.5385   0.6000
  0.0000   0.5385   0.7000
  0.0000   0.5385   0.8000
  0.0000   0.5385   0.9000
  0.0000   0.6154   0.0000
  0.0000   0.6154   0.1000
  0.0000   0.6154   0.2000
  0.0000   0.6154   0.3000
  0.0000   0.6154   0.4000
  0.0000   0.6154   0.5000
  0.0000   0.6154   0.6000
  0.0000   0.6154   0.7000
  0.0000   0.6154   0.8000
  0.0000   0.6154   0.9000
  0.0000   0.6923   0.0000
  0.0000   0.6923   0.1000
  0.0000   0.6923   0.2000
  0.0000   0.6923   0.3000
  0.0000   0.6923   0.4000
  0.0000   0.6923   0.5000
  0.0000   0.6923   0.6000
  0.0000   0.6923   0.7000
  0.0000   0.6923   0.8000
  0.0000   0.6923   0.9000
  0.0000   0.7692   0.0000
  0.0000   0.7692   0.1000
  0.0000   0.7692   0.2000
  0.0000   0.7692   0.3000
  0.0000   0.7692   0.4000
  0.0000   0.7692   0.5000
  0.0000   0.7692   0.6000
  0.0000   0.7692   0.7000
  0.0000   0.7692   0.8000
  0.0000   0.7692   0.9000
  0.0000   0.8462   0.0000
  0.0000   0.8462   0.1000
  0.0000   0.8462   0.2000
  0.0000   0.8462   0.3000
  0.0000   0.8462   0.4000
  0.0000   0.8462   0.5000
  0.0000   0.8462   0.6000
  0.0000   0.8462   0.7000
  0.0000   0.8462   0.8000
  0.0000   0.8462   0.9000
  0.0000   0.9231   0.0000
  0.0000   0.9231   0.1000
  0.0000   0.9231   0.2000
  0.0000   0.9231   0.3000
  0.0000   0.9231   0.4000
  0.0000   0.9231   0.5000
  0.0000   0.9231   0.6000
  0.0000   0.9231   0.7000
  0.0000   0.9231   0.8000
  0.0000   0.9231   0.9000
  0.1111   0.0000   0.0000
  0.1111   0.0000   0.1000
  0.1111   0.0000   0.2000
  0.1111   0.0000   0.3000
  0.1111   0.0000   0.4000
  0.1111   0.0000   0.5000
  0.1111   0.0000   0.6000
  0.1111   0.0000   0.7000
  0.1111   0.0000   0.8000
  0.1111   0.0000   0.9000
  0.1111   0.0769   0.0000
  0.1111   0.0769   0.1000
  0.1111   0.0769   0.2000
  0.1111   0.0769   0.3000
  0.1111   0.0769   0.4000
  0.1111   0.0769   0.5000
  0.1111   0.0769   0.6000
  0.1111   0.0769   0.7000
  0.1111   0.0769   0.8000
  0.1111   0.0769   0.9000
  0.1111   0.1538   0.0000
  0.1111   0.1538   0.1000
  0.1111   0.1538   0.2000
  0.1111   0.1538   0.3000
  0.1111   0.1538   0.4000
  0.1111   0.1538   0.5000
  0.1111   0.1538   0.6000
  0.1111   0.1538   0.7000
  0.1111   0.1538   0.8000
  0.1111   0.1538   0.9000
  0.1111   0.2308   0.0000
  0.1111   0.2308   0.1000
  0.1111   0.2308   0.2000
  0.1111   0.2308   0.3000
  0.1111   0.2308   0.4000
  0.1111   0.2308   0.5000
  0.1111   0.2308   0.6000
  0.1111   0.2308   0.7000
  0.1111   0.2308   0.8000
  0.1111   0.2308   0.9000
  0.1111   0.3077   0.0000
  0.1111   0.3077   0.1000
  0.1111   0.3077   0.2000
  0.1111   0.3077   0.3000
  0.1111   0.3077   0.4000
  0.1111   0.3077   0.5000
  0.1111   0.3077   0.6000
  0.1111   0.3077   0.7000
  0.1111   0.3077   0.8000
  0.1111   0.3077   0.9000
  0.1111   0.3846   0.0000
  0.1111   0.3846   0.1000
  0.1111   0.3846   0.2000
  0.1111   0.3846   0.3000
  0.1111   0.3846   0.4000
  0.1111   0.3846   0.5000
  0.1111   0.3846   0.6000
  0.1111   0.3846   0.7000
  0.1111   0.3846   0.8000
  0.1111   0.3846   0.9000
  0.1111   0.4615   0.0000
  0.1111   0.4615   0.1000
  0.1111   0.4615   0.2000
  0.1111   0.4615   0.3000
  0.1111   0.4615   0.4000
  0.1111   0.4615   0.5000
  0.1111   0.4615   0.6000
  0.1111   0.4615   0.7000
  0.1111   0.4615   0.8000
  0.1111   0.4615   0.9000
  0.1111   0.5385   0.0000
  0.1111   0.5385   0.1000
  0.1111   0.5385   0.2000
  0.1111   0.5385   0.3000
  0.1111   0.5385   0.4000
  0.1111   0.5385   0.5000
  0.1111   0.5385   0.6000
  0.1111   0.5385   0.7000
  0.1111   0.5385   0.8000
  0.1111   0.5385   0.9000
  0.1111   0.6154   0.0000
  0.1111   0.6154   0.1000
  0.1111   0.6154   0.2000
  0.1111   0.6154   0.3000
  0.1111   0.6154   0.4000
  0.1111   0.6154   0.5000
  0.1111   0.6154   0.6000
  0.1111   0.6154   0.7000
  0.1111   0.6154   0.8000
  0.1111   0.6154   0.9000
  0.1111   0.6923   0.0000
  0.1111   0.6923   0.1000
  0.1111   0.6923   0.2000
  0.1111   0.6923   0.3000
  0.1111   0.6923   0.4000
  0.1111   0.6923   0.5000
  0.1111   0.6923   0.6000
  0.1111   0.6923   0.7000
  0.1111   0.6923   0.8000
  0.1111   0.6923   0.9000
  0.1111   0.7692   0.0000
  0.1111   0.7692   0.1000
  0.1111   0.7692   0.2000
  0.1111   0.7692   0.3000
  0.1111   0.7692   0.4000
  0.1111   0.7692   0.5000
  0.1111   0.7692   0.6000
  0.1111   0.7692   0.7000
  0.1111   0.7692   0.8000
  0.1111   0.7692   0.9000
  0.1111   0.8462   0.0000
  0.1111   0.8462   0.1000
  0.1111   0.8462   0.2000
  0.1111   0.8462   0.3000
  0.1111   0.8462   0.4000
  0.1111   0.8462   0.5000
  0.1111   0.8462   0.6000
  0.1111   0.8462   0.7000
  0.1111   0.8462   0.8000
  0.1111   0.8462   0.9000
  0.1111   0.9231   0.0000
  0.1111   0.9231   0.1000
  0.1111   0.9231   0.2000
  0.1111   0.9231   0.3000
  0.1111   0.9231   0.4000
  0.1111   0.9231   0.5000
  0.1111   0.9231   0.6000
  0.1111   0.9231   0.7000
  0.1111   0.9231   0.8000
  0.1111   0.9231   0.9000
  0.2222   0.0000   0.0000
  0.2222   0.0000   0.1000
  0.2222   0.0000   0.2000
  0.2222   0.0000   0.3000
  0.2222   0.0000   0.4000
  0.2222   0.0000   0.5000
  0.2222   0.0000   0.6000
  0.2222   0.0000   0.7000
  0.2222   0.0000   0.8000
  0.2222   0.0000   0.9000
  0.2222   0.0769   0.0000
  0.2222   0.0769   0.1000
  0.2222   0.0769   0.2000
  0.2222   0.0769   0.3000
  0.2222   0.0769   0.4000
  0.2222   0.0769   0.5000
  0.2222   0.0769   0.6000
  0.2222   0.0769   0.7000
  0.2222   0.0769   0.8000
  0.2222   0.0769   0.9000
  0.2222   0.1538   0.0000
  0.2222   0.1538   0.1000
  0.2222   0.1538   0.2000
  0.2222   0.1538   0.3000
  0.2222   0.1538   0.4000
  0.2222   0.1538   0.5000
  0.2222   0.1538   0.6000
  0.2222   0.1538   0.7000
  0.2222   0.1538   0.8000
  0.2222   0.1538   0.9000
  0.2222   0.2308   0.0000
  0.2222   0.2308   0.1000
  0.2222   0.2308   0.2000
  0.2222   0.2308   0.3000
  0.2222   0.2308   0.4000
  0.2222   0.2308   0.5000
  0.2222   0.2308   0.6000
  0.2222   0.2308   0.7000
  0.2222   0.2308   0.8000
  0.2222   0.2308   0.9000
  0.2222   0.3077   0.0000
  0.2222   0.3077   0.1000
  0.2222   0.3077   0.2000
  0.2222   0.3077   0.3000
  0.2222   0.3077   0.4000
  0.2222   0.3077   0.5000
  0.2222   0.3077   0.6000
  0.2222   0.3077   0.7000
  0.2222   0.3077   0.8000
  0.2222   0.3077   0.9000
  0.2222   0.3846   0.0000
  0.2222   0.3846   0.1000
  0.2222   0.3846   0.2000
  0.2222   0.3846   0.3000
  0.2222   0.3846   0.4000
  0.2222   0.3846   0.5000
  0.2222   0.3846   0.6000
  0.2222   0.3846   0.7000
  0.2222   0.3846   0.8000
  0.2222   0.3846   0.9000
  0.2222   0.4615   0.0000
  0.2222   0.4615   0.1000
  0.2222   0.4615   0.2000
  0.2222   0.4615   0.3000
  0.2222   0.4615   0.4000
  0.2222   0.4615   0.5000
  0.2222   0.4615   0.6000
  0.2222   0.4615   0.7000
  0.2222   0.4615   0.8000
  0.2222   0.4615   0.9000
  0.2222   0.5385   0.0000
  0.2222   0.5385   0.1000
  0.2222   0.5385   0.2000
  0.2222   0.5385   0.3000
  0.2222   0.5385   0.4000
  0.2222   0.5385   0.5000
  0.2222   0.5385   0.6000
  0.2222   0.5385   0.7000
  0.2222   0.5385   0.8000
  0.2222   0.5385   0.9000
  0.2222   0.6154   0.0000
  0.2222   0.6154   0.1000
  0.2222   0.6154   0.2000
  0.2222   0.6154   0.3000
  0.2222   0.6154   0.4000
  0.2222   0.6154   0.5000
  0.2222   0.6154   0.6000
  0.2222   0.6154   0.7000
  0.2222   0.6154   0.8000
  0.2222   0.6154   0.9000
  0.2222   0.6923   0.0000
  0.2222   0.6923   0.1000
  0.2222   0.6923   0.2000
  0.2222   0.6923   0.3000
  0.2222   0.6923   0.4000
  0.2222   0.6923   0.5000
  0.2222   0.6923   0.6000
  0.2222   0.6923   0.7000
  0.2222   0.6923   0.8000
  0.2222   0.6923   0.9000
  0.2222   0.7692   0.0000
  0.2222   0.7692   0.1000
  0.2222   0.7692   0.2000
  0.2222   0.7692   0.3000
  0.2222   0.7692   0.4000
  0.2222   0.7692   0.5000
  0.2222   0.7692   0.6000
  0.2222   0.7692   0.7000
  0.2222   0.7692   0.8000
  0.2222   0.7692   0.9000
  0.2222   0.8462   0.0000
  0.2222   0.8462   0.1000
  0.2222   0.8462   0.2000
  0.2222   0.8462   0.3000
  0.2222   0.8462   0.4000
  0.2222   0.8462   0.5000
  0.2222   0.8462   0.6000
  0.2222   0.8462   0.7000
  0.2222   0.8462   0.8000
  0.2222   0.8462   0.9000
  0.2222   0.9231   0.0000
  0.2222   0.9231   0.1000
  0.2222   0.9231   0.2000
  0.2222   0.9231   0.3000
  0.2222   0.9231   0.4000
  0.2222   0.9231   0.5000
  0.2222   0.9231   0.6000
  0.2222   0.9231   0.7000
  0.2222   0.9231   0.8000
  0.2222   0.9231   0.9000
  0.3333   0.0000   0.0000
  0.3333   0.0000   0.1000
  0.3333   0.0000   0.2000
  0.3333   0.0000   0.3000
  0.3333   0.0000   0.4000
  0.3333   0.0000   0.5000
  0.3333   0.0000   0.6000
  0.3333   0.0000   0.7000
  0.3333   0.0000   0.8000
  0.3333   0.0000   0.9000
  0.3333   0.0769   0.0000
  0.3333   0.0769   0.1000
  0.3333   0.0769   0.2000
  0.3333   0.0769   0.3000
  0.3333   0.0769   0.4000
  0.3333   0.0769   0.5000
  0.3333   0.0769   0.6000
  0.3333   0.0769   0.7000
  0.3333   0.0769   0.8000
  0.3333   0.0769   0.9000
  0.3333   0.1538   0.0000
  0.3333   0.1538   0.1000
  0.3333   0.1538   0.2000
  0.3333   0.1538   0.3000
  0.3333   0.1538   0.4000
  0.3333   0.1538   0.5000
  0.3333   0.1538   0.6000
  0.3333   0.1538   0.7000
  0.3333   0.1538   0.8000
  0.3333   0.1538   0.9000
  0.3333   0.2308   0.0000
  0.3333   0.2308   0.1000
  0.3333   0.2308   0.2000
  0.3333   0.2308   0.3000
  0.3333   0.2308   0.4000
  0.3333   0.2308   0.5000
  0.3333   0.2308   0.6000
  0.3333   0.2308   0.7000
  0.3333   0.2308   0.8000
  0.3333   0.2308   0.9000
  0.3333   0.3077   0.0000
  0.3333   0.3077   0.1000
  0.3333   0.3077   0.2000
  0.3333   0.3077   0.3000
  0.3333   0.3077   0.4000
  0.3333   0.3077   0.5000
  0.3333   0.3077   0.6000
  0.3333   0.3077   0.7000
  0.3333   0.3077   0.8000
  0.3333   0.3077   0.9000
  0.3333   0.3846   0.0000
  0.3333   0.3846   0.1000
  0.3333   0.3846   0.2000
  0.3333   0.3846   0.3000
  0.3333   0.3846   0.4000
  0.3333   0.3846   0.5000
  0.3333   0.3846   0.6000
  0.3333   0.3846   0.7000
  0.3333   0.3846   0.8000
  0.3333   0.3846   0.9000
  0.3333   0.4615   0.0000
  0.3333   0.4615   0.1000
  0.3333   0.4615   0.2000
  0.3333   0.4615   0.3000
  0.3333   0.4615   0.4000
  0.3333   0.4615   0.5000
  0.3333   0.4615   0.6000
  0.3333   0.4615   0.7000
  0.3333   0.4615   0.8000
  0.3333   0.4615   0.9000
  0.3333   0.5385   0.0000
  0.3333   0.5385   0.1000
  0.3333   0.5385   0.2000
  0.3333   0.5385   0.3000
  0.3333   0.5385   0.4000
  0.3333   0.5385   0.5000
  0.3333   0.5385   0.6000
  0.3333   0.5385   0.7000
  0.3333   0.5385   0.8000
  0.3333   0.5385   0.9000
  0.3333   0.6154   0.0000
  0.3333   0.6154   0.1000
  0.3333   0.6154   0.2000
  0.3333   0.6154   0.3000
  0.3333   0.6154   0.4000
  0.3333   0.6154   0.5000
  0.3333   0.6154   0.6000
  0.3333   0.6154   0.7000
  0.3333   0.6154   0.8000
  0.3333   0.6154   0.9000
  0.3333   0.6923   0.0000
  0.3333   0.6923   0.1000
  0.3333   0.6923   0.2000
  0.3333   0.6923   0.3000
  0.3333   0.6923   0.4000
  0.3333   0.6923   0.5000
  0.3333   0.6923   0.6000
  0.3333   0.6923   0.7000
  0.3333   0.6923   0.8000
  0.3333   0.6923   0.9000
  0.3333   0.7692   0.0000
  0.3333   0.7692   0.1000
  0.3333   0.7692   0.2000
  0.3333   0.7692   0.3000
  0.3333   0.7692   0.4000
  0.3333   0.7692   0.5000
  0.3333   0.7692   0.6000
  0.3333   0.7692   0.7000
  0.3333   0.7692   0.8000
  0.3333   0.7692   0.9000
  0.3333   0.8462   0.0000
  0.3333   0.8462   0.1000
  0.3333   0.8462   0.2000
  0.3333   0.8462   0.3000
  0.3333   0.8462   0.4000
  0.3333   0.8462   0.5000
  0.3333   0.8462   0.6000
  0.3333   0.8462   0.7000
  0.3333   0.8462   0.8000
  0.3333   0.8462   0.9000
  0.3333   0.9231   0.0000
  0.3333   0.9231   0.1000
  0.3333   0.9231   0.2000
  0.3333   0.9231   0.3000
  0.3333   0.9231   0.4000
  0.3333   0.9231   0.5000
  0.3333   0.9231   0.6000
  0.3333   0.9231   0.7000
  0.3333   0.9231   0.8000
  0.3333   0.9231   0.9000
  0.4444   0.0000   0.0000
  0.4444   0.0000   0.1000
  0.4444   0.0000   0.2000
  0.4444   0.0000   0.3000
  0.4444   0.0000   0.4000
  0.4444   0.0000   0.5000
  0.4444   0.0000   0.6000
  0.4444   0.0000   0.7000
  0.4444   0.0000   0.8000
  0.4444   0.0000   0.9000
  0.4444   0.0769   0.0000
  0.4444   0.0769   0.1000
  0.4444   0.0769   0.2000
  0.4444   0.0769   0.3000
  0.4444   0.0769   0.4000
  0.4444   0.0769   0.5000
  0.4444   0.0769   0.6000
  0.4444   0.0769   0.7000
  0.4444   0.0769   0.8000
  0.4444   0.0769   0.9000
  0.4444   0.1538   0.0000
  0.4444   0.1538   0.1000
  0.4444   0.1538   0.2000
  0.4444   0.1538   0.3000
  0.4444   0.1538   0.4000
  0.4444   0.1538   0.5000
  0.4444   0.1538   0.6000
  0.4444   0.1538   0.7000
  0.4444   0.1538   0.8000
  0.4444   0.1538   0.9000
  0.4444   0.2308   0.0000
  0.4444   0.2308   0.1000
  0.4444   0.2308   0.2000
  0.4444   0.2308   0.3000
  0.4444   0.2308   0.4000
  0.4444   0.2308   0.5000
  0.4444   0.2308   0.6000
  0.4444   0.2308   0.7000
  0.4444   0.2308   0.8000
  0.4444   0.2308   0.9000
  0.4444   0.3077   0.0000
  0.4444   0.3077   0.1000
  0.4444   0.3077   0.2000
  0.4444   0.3077   0.3000
  0.4444   0.3077   0.4000
  0.4444   0.3077   0.5000
  0.4444   0.3077   0.6000
  0.4444   0.3077   0.7000
  0.4444   0.3077   0.8000
  0.4444   0.3077   0.9000
  0.4444   0.3846   0.0000
  0.4444   0.3846   0.1000
  0.4444   0.3846   0.2000
  0.4444   0.3846   0.3000
  0.4444   0.3846   0.4000
  0.4444   0.3846   0.5000
  0.4444   0.3846   0.6000
  0.4444   0.3846   0.7000
  0.4444   0.3846   0.8000
  0.4444   0.3846   0.9000
  0.4444   0.4615   0.0000
  0.4444   0.4615   0.1000
  0.4444   0.4615   0.2000
  0.4444   0.4615   0.3000
  0.4444   0.4615   0.4000
  0.4444   0.4615   0.5000
  0.4444   0.4615   0.6000
  0.4444   0.4615   0.7000
  0.4444   0.4615   0.8000
  0.4444   0.4615   0.9000
  0.4444   0.5385   0.0000
  0.4444   0.5385   0.1000
  0.4444   0.5385   0.2000
  0.4444   0.5385   0.3000
  0.4444   0.5385   0.4000
  0.4444   0.5385   0.5000
  0.4444   0.5385   0.6000
  0.4444   0.5385   0.7000
  0.4444   0.5385   0.8000
  0.4444   0.5385   0.9000
  0.4444   0.6154   0.0000
  0.4444   0.6154   0.1000
  0.4444   0.6154   0.2000
  0.4444   0.6154   0.3000
  0.4444   0.6154   0.4000
  0.4444   0.6154   0.5000
  0.4444   0.6154   0.6000
  0.4444   0.6154   0.7000
  0.4444   0.6154   0.8000
  0.4444   0.6154   0.9000
  0.4444   0.6923   0.0000
  0.4444   0.6923   0.1000
  0.4444   0.6923   0.2000
  0.4444   0.6923   0.3000
  0.4444   0.6923   0.4000
  0.4444   0.6923   0.5000
  0.4444   0.6923   0.6000
  0.4444   0.6923   0.7000
  0.4444   0.6923   0.8000
  0.4444   0.6923   0.9000
  0.4444   0.7692   0.0000
  0.4444   0.7692   0.1000
  0.4444   0.7692   0.2000
  0.4444   0.7692   0.3000
  0.4444   0.7692   0.4000
  0.4444   0.7692   0.5000
  0.4444   0.7692   0.6000
  0.4444   0.7692   0.7000
  0.4444   0.7692   0.8000
  0.4444   0.7692   0.9000
  0.4444   0.8462   0.0000
  0.4444   0.8462   0.1000
  0.4444   0.8462   0.2000
  0.4444   0.8462   0.3000
  0.4444   0.8462   0.4000
  0.4444   0.8462   0.5000
  0.4444   0.8462   0.6000
  0.4444   0.8462   0.7000
  0.4444   0.8462   0.8000
  0.4444   0.8462   0.9000
  0.4444   0.9231   0.0000
  0.4444   0.9231   0.1000
  0.4444   0.9231   0.2000
  0.4444   0.9231   0.3000
  0.4444   0.9231   0.4000
  0.4444   0.9231   0.5000
  0.4444   0.9231   0.6000
  0.4444   0.9231   0.7000
  0.4444   0.9231   0.8000
  0.4444   0.9231   0.9000
  0.5556   0.0000   0.0000
  0.5556   0.0000   0.1000
  0.5556   0.0000   0.2000
  0.5556   0.0000   0.3000
  0.5556   0.0000   0.4000
  0.5556   0.0000   0.5000
  0.5556   0.0000   0.6000
  0.5556   0.0000   0.7000
  0.5556   0.0000   0.8000
  0.5556   0.0000   0.9000
  0.5556   0.0769   0.0000
  0.5556   0.0769   0.1000
  0.5556   0.0769   0.2000
  0.5556   0.0769   0.3000
  0.5556   0.0769   0.4000
  0.5556   0.0769   0.5000
  0.5556   0.0769   0.6000
  0.5556   0.0769   0.7000
  0.5556   0.0769   0.8000
  0.5556   0.0769   0.9000
  0.5556   0.1538   0.0000
  0.5556   0.1538   0.1000
  0.5556   0.1538   0.2000
  0.5556   0.1538   0.3000
  0.5556   0.1538   0.4000
  0.5556   0.1538   0.5000
  0.5556   0.1538   0.6000
  0.5556   0.1538   0.7000
  0.5556   0.1538   0.8000
  0.5556   0.1538   0.9000
  0.5556   0.2308   0.0000
  0.5556   0.2308   0.1000
  0.5556   0.2308   0.2000
  0.5556   0.2308   0.3000
  0.5556   0.2308   0.4000
  0.5556   0.2308   0.5000
  0.5556   0.2308   0.6000
  0.5556   0.2308   0.7000
  0.5556   0.2308   0.8000
  0.5556   0.2308   0.9000
  0.5556   0.3077   0.0000
  0.5556   0.3077   0.1000
  0.5556   0.3077   0.2000
  0.5556   0.3077   0.3000
  0.5556   0.3077   0.4000
  0.5556   0.3077   0.5000
  0.5556   0.3077   0.6000
  0.5556   0.3077   0.7000
  0.5556   0.3077   0.8000
  0.5556   0.3077   0.9000
  0.5556   0.3846   0.0000
  0.5556   0.3846   0.1000
  0.5556   0.3846   0.2000
  0.5556   0.3846   0.3000
  0.5556   0.3846   0.4000
  0.5556   0.3846   0.5000
  0.5556   0.3846   0.6000
  0.5556   0.3846   0.7000
  0.5556   0.3846   0.8000
  0.5556   0.3846   0.9000
  0.5556   0.4615   0.0000
  0.5556   0.4615   0.1000
  0.5556   0.4615   0.2000
  0.5556   0.4615   0.3000
  0.5556   0.4615   0.4000
  0.5556   0.4615   0.5000
  0.5556   0.4615   0.6000
  0.5556   0.4615   0.7000
  0.5556   0.4615   0.8000
  0.5556   0.4615   0.9000
  0.5556   0.5385   0.0000
  0.5556   0.5385   0.1000
  0.5556   0.5385   0.2000
  0.5556   0.5385   0.3000
  0.5556   0.5385   0.4000
  0.5556   0.5385   0.5000
  0.5556   0.5385   0.6000
  0.5556   0.5385   0.7000
  0.5556   0.5385   0.8000
  0.5556   0.5385   0.9000
  0.5556   0.6154   0.0000
  0.5556   0.6154   0.1000
  0.5556   0.6154   0.2000
  0.5556   0.6154   0.3000
  0.5556   0.6154   0.4000
  0.5556   0.6154   0.5000
  0.5556   0.6154   0.6000
  0.5556   0.6154   0.7000
  0.5556   0.6154   0.8000
  0.5556   0.6154   0.9000
  0.5556   0.6923   0.0000
  0.5556   0.6923   0.1000
  0.5556   0.6923   0.2000
  0.5556   0.6923   0.3000
  0.5556   0.6923   0.4000
  0.5556   0.6923   0.5000
  0.5556   0.6923   0.6000
  0.5556   0.6923   0.7000
  0.5556   0.6923   0.8000
  0.5556   0.6923   0.9000
  0.5556   0.7692   0.0000
  0.5556   0.7692   0.1000
  0.5556   0.7692   0.2000
  0.5556   0.7692   0.3000
  0.5556   0.7692   0.4000
  0.5556   0.7692   0.5000
  0.5556   0.7692   0.6000
  0.5556   0.7692   0.7000
  0.5556   0.7692   0.8000
  0.5556   0.7692   0.9000
  0.5556   0.8462   0.0000
  0.5556   0.8462   0.1000
  0.5556   0.8462   0.2000
  0.5556   0.8462   0.3000
  0.5556   0.8462   0.4000
  0.5556   0.8462   0.5000
  0.5556   0.8462   0.6000
  0.5556   0.8462   0.7000
  0.5556   0.8462   0.8000
  0.5556   0.8462   0.9000
  0.5556   0.9231   0.0000
  0.5556   0.9231   0.1000
  0.5556   0.9231   0.2000
  0.5556   0.9231   0.3000
  0.5556   0.9231   0.4000
  0.5556   0.9231   0.5000
  0.5556   0.9231   0.6000
  0.5556   0.9231   0.7000
  0.5556   0.9231   0.8000
  0.5556   0.9231   0.9000
  0.6667   0.0000   0.0000
  0.6667   0.0000   0.1000
  0.6667   0.0000   0.2000
  0.6667   0.0000   0.3000
  0.6667   0.0000   0.4000
  0.6667   0.0000   0.5000
  0.6667   0.0000   0.6000
  0.6667   0.0000   0.7000
  0.6667   0.0000   0.8000
  0.6667   0.0000   0.9000
  0.6667   0.0769   0.0000
  0.6667   0.0769   0.1000
  0.6667   0.0769   0.2000
  0.6667   0.0769   0.3000
  0.6667   0.0769   0.4000
  0.6667   0.0769   0.5000
  0.6667   0.0769   0.6000
  0.6667   0.0769   0.7000
  0.6667   0.0769   0.8000
  0.6667   0.0769   0.9000
  0.6667   0.1538   0.0000
  0.6667   0.1538   0.1000
  0.6667   0.1538   0.2000
  0.6667   0.1538   0.3000
  0.6667   0.1538   0.4000
  0.6667   0.1538   0.5000
  0.6667   0.1538   0.6000
  0.6667   0.1538   0.7000
  0.6667   0.1538   0.8000
  0.6667   0.1538   0.9000
  0.6667   0.2308   0.0000
  0.6667   0.2308   0.1000
  0.6667   0.2308   0.2000
  0.6667   0.2308   0.3000
  0.6667   0.2308   0.4000
  0.6667   0.2308   0.5000
  0.6667   0.2308   0.6000
  0.6667   0.2308   0.7000
  0.6667   0.2308   0.8000
  0.6667   0.2308   0.9000
  0.6667   0.3077   0.0000
  0.6667   0.3077   0.1000
  0.6667   0.3077   0.2000
  0.6667   0.3077   0.3000
  0.6667   0.3077   0.4000
  0.6667   0.3077   0.5000
  0.6667   0.3077   0.6000
  0.6667   0.3077   0.7000
  0.6667   0.3077   0.8000
  0.6667   0.3077   0.9000
  0.6667   0.3846   0.0000
  0.6667   0.3846   0.1000
  0.6667   0.3846   0.2000
  0.6667   0.3846   0.3000
  0.6667   0.3846   0.4000
  0.6667   0.3846   0.5000
  0.6667   0.3846   0.6000
  0.6667   0.3846   0.7000
  0.6667   0.3846   0.8000
  0.6667   0.3846   0.9000
  0.6667   0.4615   0.0000
  0.6667   0.4615   0.1000
  0.6667   0.4615   0.2000
  0.6667   0.4615   0.3000
  0.6667   0.4615   0.4000
  0.6667   0.4615   0.5000
  0.6667   0.4615   0.6000
  0.6667   0.4615   0.7000
  0.6667   0.4615   0.8000
  0.6667   0.4615   0.9000
  0.6667   0.5385   0.0000
  0.6667   0.5385   0.1000
  0.6667   0.5385   0.2000
  0.6667   0.5385   0.3000
  0.6667   0.5385   0.4000
  0.6667   0.5385   0.5000
  0.6667   0.5385   0.6000
  0.6667   0.5385   0.7000
  0.6667   0.5385   0.8000
  0.6667   0.5385   0.9000
  0.6667   0.6154   0.0000
  0.6667   0.6154   0.1000
  0.6667   0.6154   0.2000
  0.6667   0.6154   0.3000
  0.6667   0.6154   0.4000
  0.6667   0.6154   0.5000
  0.6667   0.6154   0.6000
  0.6667   0.6154   0.7000
  0.6667   0.6154   0.8000
  0.6667   0.6154   0.9000
  0.6667   0.6923   0.0000
  0.6667   0.6923   0.1000
  0.6667   0.6923   0.2000
  0.6667   0.6923   0.3000
  0.6667   0.6923   0.4000
  0.6667   0.6923   0.5000
  0.6667   0.6923   0.6000
  0.6667   0.6923   0.7000
  0.6667   0.6923   0.8000
  0.6667   0.6923   0.9000
  0.6667   0.7692   0.0000
  0.6667   0.7692   0.1000
  0.6667   0.7692   0.2000
  0.6667   0.7692   0.3000
  0.6667   0.7692   0.4000
  0.6667   0.7692   0.5000
  0.6667   0.7692   0.6000
  0.6667   0.7692   0.7000
  0.6667   0.7692   0.8000
  0.6667   0.7692   0.9000
  0.6667   0.8462   0.0000
  0.6667   0.8462   0.1000
  0.6667   0.8462   0.2000
  0.6667   0.8462   0.3000
  0.6667   0.8462   0.4000
  0.6667   0.8462   0.5000
  0.6667   0.8462   0.6000
  0.6667   0.8462   0.7000
  0.6667   0.8462   0.8000
  0.6667   0.8462   0.9000
  0.6667   0.9231   0.0000
  0.6667   0.9231   0.1000
  0.6667   0.9231   0.2000
  0.6667   0.9231   0.3000
  0.6667   0.9231   0.4000
  0.6667   0.9231   0.5000
  0.6667   0.9231   0.6000
  0.6667   0.9231   0.7000
  0.6667   0.9231   0.8000
  0.6667   0.9231   0.9000
  0.7778   0.0000   0.0000
  0.7778   0.0000   0.1000
  0.7778   0.0000   0.2000
  0.7778   0.0000   0.3000
  0.7778   0.0000   0.4000
  0.7778   0.0000   0.5000
  0.7778   0.0000   0.6000
  0.7778   0.0000   0.7000
  0.7778   0.0000   0.8000
  0.7778   0.0000   0.9000
  0.7778   0.0769   0.0000
  0.7778   0.0769   0.1000
  0.7778   0.0769   0.2000
  0.7778   0.0769   0.3000
  0.7778   0.0769   0.4000
  0.7778   0.0769   0.5000
  0.7778   0.0769   0.6000
  0.7778   0.0769   0.7000
  0.7778   0.0769   0.8000
  0.7778   0.0769   0.9000
  0.7778   0.1538   0.0000
  0.7778   0.1538   0.1000
  0.7778   0.1538   0.2000
  0.7778   0.1538   0.3000
  0.7778   0.1538   0.4000
  0.7778   0.1538   0.5000
  0.7778   0.1538   0.6000
  0.7778   0.1538   0.7000
  0.7778   0.1538   0.8000
  0.7778   0.1538   0.9000
  0.7778   0.2308   0.0000
  0.7778   0.2308   0.1000
  0.7778   0.2308   0.2000
  0.7778   0.2308   0.3000
  0.7778   0.2308   0.4000
  0.7778   0.2308   0.5000
  0.7778   0.2308   0.6000
  0.7778   0.2308   0.7000
  0.7778   0.2308   0.8000
  0.7778   0.2308   0.9000
  0.7778   0.3077   0.0000
  0.7778   0.3077   0.1000
  0.7778   0.3077   0.2000
  0.7778   0.3077   0.3000
  0.7778   0.3077   0.4000
  0.7778   0.3077   0.5000
  0.7778   0.3077   0.6000
  0.7778   0.3077   0.7000
  0.7778   0.3077   0.8000
  0.7778   0.3077   0.9000
  0.7778   0.3846   0.0000
  0.7778   0.3846   0.1000
  0.7778   0.3846   0.2000
  0.7778   0.3846   0.3000
  0.7778   0.3846   0.4000
  0.7778   0.3846   0.5000
  0.7778   0.3846   0.6000
  0.7778   0.3846   0.7000
  0.7778   0.3846   0.8000
  0.7778   0.3846   0.9000
  0.7778   0.4615   0.0000
  0.7778   0.4615   0.1000
  0.7778   0.4615   0.2000
  0.7778   0.4615   0.3000
  0.7778   0.4615   0.4000
  0.7778   0.4615   0.5000
  0.7778   0.4615   0.6000
  0.7778   0.4615   0.7000
  0.7778   0.4615   0.8000
  0.7778   0.4615   0.9000
  0.7778   0.5385   0.0000
  0.7778   0.5385   0.1000
  0.7778   0.5385   0.2000
  0.7778   0.5385   0.3000
  0.7778   0.5385   0.4000
  0.7778   0.5385   0.5000
  0.7778   0.5385   0.6000
  0.7778   0.5385   0.7000
  0.7778   0.5385   0.8000
  0.7778   0.5385   0.9000
  0.7778   0.6154   0.0000
  0.7778   0.6154   0.1000
  0.7778   0.6154   0.2000
  0.7778   0.6154   0.3000
  0.7778   0.6154   0.4000
  0.7778   0.6154   0.5000
  0.7778   0.6154   0.6000
  0.7778   0.6154   0.7000
  0.7778   0.6154   0.8000
  0.7778   0.6154   0.9000
  0.7778   0.6923   0.0000
  0.7778   0.6923   0.1000
  0.7778   0.6923   0.2000
  0.7778   0.6923   0.3000
  0.7778   0.6923   0.4000
  0.7778   0.6923   0.5000
  0.7778   0.6923   0.6000
  0.7778   0.6923   0.7000
  0.7778   0.6923   0.8000
  0.7778   0.6923   0.9000
  0.7778   0.7692   0.0000
  0.7778   0.7692   0.1000
  0.7778   0.7692   0.2000
  0.7778   0.7692   0.3000
  0.7778   0.7692   0.4000
  0.7778   0.7692   0.5000
  0.7778   0.7692   0.6000
  0.7778   0.7692   0.7000
  0.7778   0.7692   0.8000
  0.7778   0.7692   0.9000
  0.7778   0.8462   0.0000
  0.7778   0.8462   0.1000
  0.7778   0.8462   0.2000
  0.7778   0.8462   0.3000
  0.7778   0.8462   0.4000
  0.7778   0.8462   0.5000
  0.7778   0.8462   0.6000
  0.7778   0.8462   0.7000
  0.7778   0.8462   0.8000
  0.7778   0.8462   0.9000
  0.7778   0.9231   0.0000
  0.7778   0.9231   0.1000
  0.7778   0.9231   0.2000
  0.7778   0.9231   0.3000
  0.7778   0.9231   0.4000
  0.7778   0.9231   0.5000
  0.7778   0.9231   0.6000
  0.7778   0.9231   0.7000
  0.7778   0.9231   0.8000
  0.7778   0.9231   0.9000
  0.8889   0.0000   0.0000
  0.8889   0.0000   0.1000
  0.8889   0.0000   0.2000
  0.8889   0.0000   0.3000
  0.8889   0.0000   0.4000
  0.8889   0.0000   0.5000
  0.8889   0.0000   0.6000
  0.8889   0.0000   0.7000
  0.8889   0.0000   0.8000
  0.8889   0.0000   0.9000
  0.8889   0.0769   0.0000
  0.8889   0.0769   0.1000
  0.8889   0.0769   0.2000
  0.8889   0.0769   0.3000
  0.8889   0.0769   0.4000
  0.8889   0.0769   0.5000
  0.8889   0.0769   0.6000
  0.8889   0.0769   0.7000
  0.8889   0.0769   0.8000
  0.8889   0.0769   0.9000
  0.8889   0.1538   0.0000
  0.8889   0.1538   0.1000
  0.8889   0.1538   0.2000
  0.8889   0.1538   0.3000
  0.8889   0.1538   0.4000
  0.8889   0.1538   0.5000
  0.8889   0.1538   0.6000
  0.8889   0.1538   0.7000
  0.8889   0.1538   0.8000
  0.8889   0.1538   0.9000
  0.8889   0.2308   0.0000
  0.8889   0.2308   0.1000
  0.8889   0.2308   0.2000
  0.8889   0.2308   0.3000
  0.8889   0.2308   0.4000
  0.8889   0.2308   0.5000
  0.8889   0.2308   0.6000
  0.8889   0.2308   0.7000
  0.8889   0.2308   0.8000
  0.8889   0.2308   0.9000
  0.8889   0.3077   0.0000
  0.8889   0.3077   0.1000
  0.8889   0.3077   0.2000
  0.8889   0.3077   0.3000
  0.8889   0.3077   0.4000
  0.8889   0.3077   0.5000
  0.8889   0.3077   0.6000
  0.8889   0.3077   0.7000
  0.8889   0.3077   0.8000
  0.8889   0.3077   0.9000
  0.8889   0.3846   0.0000
  0.8889   0.3846   0.1000
  0.8889   0.3846   0.2000
  0.8889   0.3846   0.3000
  0.8889   0.3846   0.4000
  0.8889   0.3846   0.5000
  0.8889   0.3846   0.6000
  0.8889   0.3846   0.7000
  0.8889   0.3846   0.8000
  0.8889   0.3846   0.9000
  0.8889   0.4615   0.0000
  0.8889   0.4615   0.1000
  0.8889   0.4615   0.2000
  0.8889   0.4615   0.3000
  0.8889   0.4615   0.4000
  0.8889   0.4615   0.5000
  0.8889   0.4615   0.6000