Zn2 Ga2 N2 O2
1.0
4.475863 0.000000 0.000000
0.000000 4.711784 0.000000
0.000000 0.000000 4.603173
Zn Ga N O
2 2 2 2
direct
0.770350 0.500000 0.500000 Zn
0.229650 0.500000 0.000000 Zn
0.235111 0.000000 0.500000 Ga
0.764889 0.000000 0.000000 Ga
0.000000 0.763210 0.750000 N
0.000000 0.236790 0.250000 N
0.500000 0.227848 0.750000 O
0.500000 0.772152 0.250000 O
