ALGO=Normal
PREC=Accurate
ISYM=0
ISMEAR=0
NEW=100
ENCUT=500
EDIFF=1E-6
IBRION=2
LREAL=A