Zn4 Ga4 N4 O4                           
   1.00000000000000     
    11.6221159657377004   -0.0000000482856459    0.0009112579028824
     0.0000000148137963    3.3387550758513571   -0.0000000015550171
    -5.7587266394848777    0.0000000274797808    5.8993057383271363
   Zn   Ga   N    O 
     4     4     4     4
Direct
  0.4387996958555798  0.9999999936117773  0.0290623365837825
  0.7694983302735460  0.4999999798275239  0.2888572987955874
  0.9388005753515443  0.5000000067279665  0.0290628965346095
  0.2694987050921618  0.0000000209731838  0.2888580790274322
  0.8477895029946165  0.9999999820440276  0.6340839568182148
  0.1653464037471961  0.4999999903482399  0.8423161772731256
  0.3477902049564232  0.5000000178355830  0.6340839542236376
  0.6653448640505526  0.0000000103760965  0.8423153356206821
  0.9389260769734058  0.4999999814678541  0.6324088029137145
  0.8315542082404143  0.0000000061411007  0.8472741110987327
  0.4389275029084532  0.0000000181687407  0.6324104031384172
  0.3315532878366079  0.4999999938999352  0.8472748009217164
  0.7390805914411843  0.5000000073921342  0.0269323995418772
  0.6693421308957926  0.9999999793598016  0.2990651283686693
  0.2390797944273377  0.9999999921925774  0.0269315419766254
  0.1693421249551998  0.5000000196334567  0.2990647771631878
 
  0.00000000E+00  0.00000000E+00  0.00000000E+00
  0.00000000E+00  0.00000000E+00  0.00000000E+00
  0.00000000E+00  0.00000000E+00  0.00000000E+00
  0.00000000E+00  0.00000000E+00  0.00000000E+00
  0.00000000E+00  0.00000000E+00  0.00000000E+00
  0.00000000E+00  0.00000000E+00  0.00000000E+00
  0.00000000E+00  0.00000000E+00  0.00000000E+00
  0.00000000E+00  0.00000000E+00  0.00000000E+00
  0.00000000E+00  0.00000000E+00  0.00000000E+00
  0.00000000E+00  0.00000000E+00  0.00000000E+00
  0.00000000E+00  0.00000000E+00  0.00000000E+00
  0.00000000E+00  0.00000000E+00  0.00000000E+00
  0.00000000E+00  0.00000000E+00  0.00000000E+00
  0.00000000E+00  0.00000000E+00  0.00000000E+00
  0.00000000E+00  0.00000000E+00  0.00000000E+00
  0.00000000E+00  0.00000000E+00  0.00000000E+00
