B4 C12
1.0
2.103933 0.000000 0.000000
0.000000 7.284409 0.000000
-0.122217 0.000000 7.459020
B C
4 12
direct
0.504655 0.750000 0.912898 B
0.504426 0.250000 0.587005 B
0.495574 0.750000 0.412995 B
0.495345 0.250000 0.087102 B
0.530091 0.750000 0.617602 C
0.537819 0.250000 0.882514 C
0.462181 0.750000 0.117486 C
0.469909 0.250000 0.382398 C
0.470771 0.100526 0.236713 C
0.472624 0.899380 0.262889 C
0.470771 0.399474 0.236713 C
0.472624 0.600620 0.262889 C
0.527376 0.100620 0.737111 C
0.529229 0.899474 0.763287 C
0.527376 0.399380 0.737111 C
0.529229 0.600526 0.763287 C
