Na
1.0
5 0.000000 0.000000
0.000000 5 0.000000
0.000000 0.000000 5
Na
2
direct
0 0 0 
0.5 0.5 0.5