E = -1                                  
   1.00000000000000     
     3.0670686876945878    0.2515107487613990   -0.0093805892289330
    -0.4739847652720073    6.9865038087046916    0.8151108074864959
    -0.2281678073413453    1.3139220836697636    6.8734817894432636
   Ga   N    O    Zn
     2     2     2     2
Direct
  0.1727836771110015  0.3004793035505814  0.1729134067479806
  0.7372261627702116  0.2096285009215710  0.6348265812070329
  0.3857935269474594  0.6519117371366729  0.5970073388132779
  0.2725476315043482  0.7794946488776093  0.4672015848710522
  0.6860282336329645  0.2480190786566365  0.3594667760673562
  0.1702470441547825  0.5806176082641213  0.0777833989555247
  0.6671856444167520  0.7551369788627109  0.0240652894701796
  0.2081880794624859  0.0747121437300984  0.9667356238675944
 
  0.00000000E+00  0.00000000E+00  0.00000000E+00
  0.00000000E+00  0.00000000E+00  0.00000000E+00
  0.00000000E+00  0.00000000E+00  0.00000000E+00
  0.00000000E+00  0.00000000E+00  0.00000000E+00
  0.00000000E+00  0.00000000E+00  0.00000000E+00
  0.00000000E+00  0.00000000E+00  0.00000000E+00
  0.00000000E+00  0.00000000E+00  0.00000000E+00
  0.00000000E+00  0.00000000E+00  0.00000000E+00
