E = -1
1
3.253000 0.033600 -0.102800
0.018700 6.033800 -0.435400
-0.061000 -0.419200 6.255500
Ga N O Zn
2 2 2 2
Direct
0.400000 0.000000 0.300000
0.700000 0.700000 0.900000
0.300000 0.100000 0.600000
0.700000 0.000000 0.600000
0.200000 0.700000 0.200000
0.600000 0.600000 0.300000
0.600000 0.200000 0.900000
0.300000 0.400000 0.500000