ISTART=0
ICHARG=2
ISMEAR=0
EDIFF=1E-4
EDIFFG=-0.1
NSW=15
LREAL=.FALSE.
NCORE=12
IBRION=2
ISIF=3
