ISYM=0
ISTART=0 
ICHARG=2
ENCUT=420
ISMEAR=0
EDIFF=1E-4
EDIFFG=-0.05
NSW=30
NPAR=4
IBRION=2
ISIF=3
SYMPREC=1E-04