Kpoints from vasprun.xml
0
Gamma
12 12 1
