Zn2 Ga2 N2 O2
1.0
3.355610 0.000000 0.000000
-0.002565 5.231227 0.000000
-0.002432 -0.033419 5.547663
Zn Ga N O
2 2 2 2
direct
0.794280 0.170378 0.292410 Zn
0.287851 0.683451 0.133569 Zn
0.783585 0.661771 0.644279 Ga
0.285803 0.178557 0.824658 Ga
0.283025 0.544587 0.784645 N
0.293336 0.059494 0.141923 N
0.785041 0.039917 0.660289 O
0.787079 0.561846 0.318228 O
