Zn2 Ga2 N2 O2
1.0
3.823307 0.000000 0.000000
1.289452 4.771994 0.000000
1.125709 -0.006726 5.679817
Zn Ga N O
2 2 2 2
direct
0.990530 0.783057 0.949266 Zn
0.315012 0.178429 0.217781 Zn
0.904222 0.782142 0.508770 Ga
0.542420 0.434436 0.675727 Ga
0.810216 0.225248 0.916135 N
0.975217 0.374127 0.018224 N
0.225133 0.788983 0.221885 O
0.537251 0.133577 0.492212 O
