Zn2 Ga2 N2 O2
1.0
3.424004 0.000000 0.000000
0.005747 5.358363 0.000000
0.001489 1.218357 5.231667
Zn Ga N O
2 2 2 2
direct
0.000761 0.418913 0.381739 Zn
0.999853 0.930497 0.848727 Zn
0.500915 0.922062 0.375114 Ga
0.498735 0.432408 0.852261 Ga
0.500106 0.551251 0.490606 N
0.001797 0.038093 0.473578 N
0.499479 0.065677 0.996406 O
0.998354 0.541099 0.981569 O
