Zn2 Ga2 N2 O2
1.0
3.655103 0.000000 0.000000
0.945429 4.946663 0.000000
0.028665 0.013791 5.548651
Zn Ga N O
2 2 2 2
direct
0.158716 0.309173 0.856864 Zn
0.707001 0.403443 0.272241 Zn
0.195672 0.926342 0.168597 Ga
0.556546 0.862426 0.692823 Ga
0.024379 0.517861 0.539054 N
0.263887 0.663078 0.468038 N
0.661680 0.017986 0.314169 O
0.432119 0.599693 0.988213 O
