Zn2 Ga2 N2 O2
1.0
3.333145 0.000000 0.000000
0.138474 5.448482 0.000000
1.332079 0.367593 5.813814
Zn Ga N O
2 2 2 2
direct
0.259070 0.418670 0.444236 Zn
0.085876 0.094228 0.909956 Zn
0.756023 0.893943 0.433214 Ga
0.572010 0.415175 0.911782 Ga
0.053747 0.802566 0.126461 N
0.350317 0.646068 0.148698 N
0.696844 0.576882 0.594605 O
0.226113 0.052468 0.531047 O
