Zn2 Ga2 N2 O2
1.0
4.036344 0.000000 0.000000
0.729603 4.827154 0.000000
1.107206 1.330912 5.394573
Zn Ga N O
2 2 2 2
direct
0.843344 0.032803 0.981466 Zn
0.788348 0.416118 0.203361 Zn
0.452627 0.440098 0.782004 Ga
0.115446 0.868624 0.366932 Ga
0.375697 0.467946 0.441869 N
0.001831 0.674585 0.885658 N
0.792663 0.733052 0.681925 O
0.130043 0.266774 0.456785 O
