Zn2 Ga2 N2 O2
1.0
4.498006 0.000000 0.000000
-0.001751 4.592040 0.000000
-0.007262 -0.007012 4.703417
Zn Ga N O
2 2 2 2
direct
0.741372 0.762283 0.588555 Zn
0.285856 0.261970 0.587651 Zn
0.276923 0.762840 0.087533 Ga
0.747027 0.263135 0.087641 Ga
0.512279 0.512458 0.322755 N
0.512324 0.011997 0.851930 N
0.012367 0.012549 0.315063 O
0.011853 0.512768 0.858872 O
