Zn4 Ga4 N4 O4
1.0
5.662176 0.000000 0.000000
-0.485851 5.645200 0.000000
-0.282393 -0.666673 5.682156
Zn Ga N O
4 4 4 4
direct
0.526112 0.501420 0.907965 Zn
0.488873 0.020727 0.118807 Zn
0.373825 0.105007 0.579841 Zn
0.874304 0.238518 0.460876 Zn
0.420288 0.546894 0.394140 Ga
0.018882 0.271674 0.018859 Ga
0.948687 0.708286 0.694090 Ga
0.930327 0.845266 0.220899 Ga
0.859439 0.040460 0.747891 N
0.604622 0.741351 0.199126 N
0.679896 0.484749 0.607233 N
0.345058 0.300337 0.114983 N
0.198660 0.377694 0.597740 O
0.605472 0.989650 0.782682 O
0.172856 0.797448 0.463767 O
0.052700 0.630516 0.991100 O
