Zn2 Ga2 N2 O2
1.0
3.398102 0.000000 0.000000
0.843288 5.017684 0.000000
0.928931 0.021723 5.667699
Zn Ga N O
2 2 2 2
direct
0.654224 0.613569 0.108694 Zn
0.143324 0.162924 0.369953 Zn
0.476699 0.163559 0.722993 Ga
0.995416 0.726071 0.614821 Ga
0.644312 0.022937 0.033224 N
0.877703 0.181158 0.082000 N
0.119883 0.573700 0.311777 O
0.488438 0.556082 0.756538 O
