Zn2 Ga2 N2 O2
1.0
4.613497 0.000000 0.000000
0.934406 5.092944 0.000000
0.442302 2.098010 4.767460
Zn Ga N O
2 2 2 2
direct
0.589097 0.144253 0.489493 Zn
0.313292 0.640030 0.529941 Zn
0.242187 0.065147 0.905581 Ga
0.962747 0.410023 0.223084 Ga
0.677359 0.700015 0.663945 N
0.894691 0.541480 0.797683 N
0.317483 0.160490 0.204466 O
0.103143 0.738563 0.185807 O
