Zn2 Ga2 N2 O2
1.0
5.014650 0.000000 0.000000
0.250113 5.251547 0.000000
0.477798 0.525057 5.302364
Zn Ga N O
2 2 2 2
direct
0.921314 0.061659 0.537733 Zn
0.950007 0.631658 0.161771 Zn
0.274446 0.805732 0.782217 Ga
0.495632 0.815332 0.260315 Ga
0.114444 0.262775 0.219244 N
0.307811 0.173566 0.106538 N
0.566336 0.948159 0.579341 O
0.170010 0.701119 0.452842 O
