Zn2 Ga2 N2 O2
1.0
3.986165 0.000000 0.000000
1.025643 4.901273 0.000000
0.906634 0.608629 5.691422
Zn Ga N O
2 2 2 2
direct
0.060495 0.454565 0.150525 Zn
0.622149 0.152875 0.303471 Zn
0.846880 0.194903 0.767556 Ga
0.514192 0.707428 0.878509 Ga
0.174527 0.697689 0.402218 N
0.129251 0.654744 0.602754 N
0.449863 0.056275 0.664281 O
0.802643 0.881520 0.030688 O
