E = -1                                  
   1.00000000000000     
     5.5074574558964420    1.4417809866008551    0.1866638458807219
     1.3287773566451222    6.0249516563873966   -0.5064100299665890
     0.0549493203708201   -0.6218649174269766    3.1930507214033108
   Ga   N    O    Zn
     2     2     2     2
Direct
  0.1676092347429824  0.1223802323742971  0.3674483852148020
  0.2556042365650266  0.5907850299510458  0.6016346266812255
  0.4353619261947551  0.2330111834732471  0.4228434653945777
  0.9670990270300823  0.2039510325390494  0.9082620514245403
  0.8776795277315149  0.7221198503802335  0.6672312034105408
  0.3528671871844232  0.7268546500521145  0.1696329976532732
  0.7767878922007436  0.5794943517538698  0.0959249505898016
  0.6669909683504787  0.1214036694761542  0.8670223196312398
 
  0.00000000E+00  0.00000000E+00  0.00000000E+00
  0.00000000E+00  0.00000000E+00  0.00000000E+00
  0.00000000E+00  0.00000000E+00  0.00000000E+00
  0.00000000E+00  0.00000000E+00  0.00000000E+00
  0.00000000E+00  0.00000000E+00  0.00000000E+00
  0.00000000E+00  0.00000000E+00  0.00000000E+00
  0.00000000E+00  0.00000000E+00  0.00000000E+00
  0.00000000E+00  0.00000000E+00  0.00000000E+00
