E = -1                                  
   1.00000000000000     
     4.5899195946007794   -0.2533491573283764   -0.1721728986421252
    -0.2690285545725424    4.3627335755629710    0.2381167352636657
    -0.1440217220409452    0.2525891724340827    5.1720347662407340
   Ga   N    O    Zn
     2     2     2     2
Direct
  0.8179863248446233  0.9351833104159599  0.8393757573736117
  0.3791053257009077  0.3775665838158037  0.9130030653960207
  0.4127906804718879  0.7850415568775408  0.7160620139527125
  0.2104805706712033  0.0180071447580785  0.7119019720213587
  0.7678123116612610  0.3764662778294734  0.7718573124896279
  0.8594451049348506  0.8647597391261432  0.2055803791509190
  0.5791874011879531  0.5867286412263049  0.4077460761778451
  0.1731922805273163  0.1562467459506899  0.3344734234378954
 
  0.00000000E+00  0.00000000E+00  0.00000000E+00
  0.00000000E+00  0.00000000E+00  0.00000000E+00
  0.00000000E+00  0.00000000E+00  0.00000000E+00
  0.00000000E+00  0.00000000E+00  0.00000000E+00
  0.00000000E+00  0.00000000E+00  0.00000000E+00
  0.00000000E+00  0.00000000E+00  0.00000000E+00
  0.00000000E+00  0.00000000E+00  0.00000000E+00
  0.00000000E+00  0.00000000E+00  0.00000000E+00
