E = -1                                  
   1.00000000000000     
     4.5006342631112126   -0.3916413166596667    0.2837701407251454
    -0.3599212367951762    4.7398920691359905   -0.3651903903312721
     0.2504863886512073   -0.2976375645851211    4.8824881753186391
   Ga   N    O    Zn
     2     2     2     2
Direct
  0.7589563704809293  0.9547368885412356  0.7118117141321175
  0.2871757157156303  0.5217965923911581  0.8834425950501288
  0.3429079966395018  0.9542973829049368  0.8949436960748200
  0.1795297233658820  0.1113807825054321  0.7478970664015108
  0.7328940220923803  0.5631972240212669  0.7702084612070119
  0.2165344522737316  0.5550509049447213  0.2763155462545759
  0.8323641833527988  0.3392631434060855  0.3907752680852948
  0.3496375360791271  0.0002770812851627  0.3246056527945335
 
  0.00000000E+00  0.00000000E+00  0.00000000E+00
  0.00000000E+00  0.00000000E+00  0.00000000E+00
  0.00000000E+00  0.00000000E+00  0.00000000E+00
  0.00000000E+00  0.00000000E+00  0.00000000E+00
  0.00000000E+00  0.00000000E+00  0.00000000E+00
  0.00000000E+00  0.00000000E+00  0.00000000E+00
  0.00000000E+00  0.00000000E+00  0.00000000E+00
  0.00000000E+00  0.00000000E+00  0.00000000E+00
