ISYM    = 0
ISTART  = 0 
ICHARG  = 2
ENCUT   = 750
ISMEAR  = 0
EDIFF   = 1E-8  
NSW     = 300
IBRION  = 2
ISIF    = 2
NPAR    = 2
SYMPREC = 1E-04