ISYM    = 0
ISTART  = 0 
ICHARG  = 2
ENCUT   = 550
ISMEAR  = 0
EDIFF   = 1E-7  
NSW     = 200
IBRION  = 2
ISIF    = 2
NPAR    = 2
SYMPREC = 1E-04