units         metal
dimension     3
boundary      p p p
atom_style    atomic

read_data     lammps.inp

pair_style    airebo 3.0
pair_coeff    * * CH.airebo C

min_style     cg
minimize      1e-6 1e-6 5000 10000

dump 1 all custom 10000 dump.out id type x y z
thermo_style custom step xlo xhi ylo yhi zlo zhi xy xz yz etotal
thermo        10000
run 10000