ISTART  = 0 
ICHARG  = 2
ENCUT   = 750
ISMEAR  = 0
EDIFF   = 1E-8  
NSW     = 300
IBRION  = 2
ISIF    = 3
NPAR=2

