ISYM=0
ISTART=0 
ICHARG=2
ENCUT=480
ISMEAR=0
EDIFF=1E-5
EDIFFG=-0.02
NSW=80
IBRION=2
ISIF=3
SYMPREC=1E-04