ISYM    = 0
ISTART  = 0 
ICHARG  = 2
ENCUT   = 550
ISMEAR  = 0
EDIFF   = 1E-6  
NSW     = 300
IBRION  = 2
ISIF    = 3
NPAR=2

