ISYM=0
ISTART=0 
ICHARG=2
ENCUT=520
ISMEAR=0
EDIFF=1E-6
EDIFFG=-0.01  
NSW=100
NELMDL=5
IBRION=1
POTIM=0.2
ISIF=4
SYMPREC=1E-04