ISYM=0
ISTART=0 
ICHARG=2
ENCUT=450
ISMEAR=0
EDIFF=1E-4
EDIFFG=-0.05
NSW=100
IBRION=2
ISIF=2
SYMPREC=1E-04