ISYM=0
ISTART=0 
ICHARG=2
ENCUT=550
ISMEAR=0
EDIFF=1E-5  
EDIFFG=-0.02
NSW=150
NELMDL=5
IBRION=1
ISIF=2
SYMPREC=1E-04