ISYM=0
ISTART=0 
ICHARG=2
ENCUT=400
ISMEAR=0
EDIFF=1E-3
EDIFFG=-0.1
NSW=30
IBRION=2
ISIF=2
SYMPREC=1E-04