B2 C6
1.0
4.517717 0.000000 0.000000
-2.215753 5.260320 0.000000
0.000000 0.000000 4.160021
B C
2 6
direct
0.727795 0.135689 0.500000 B
0.272205 0.864311 0.500000 B
0.396148 0.155598 0.500000 C
0.603852 0.844402 0.500000 C
0.648294 0.617380 0.500000 C
0.031372 0.389421 0.500000 C
0.968628 0.610579 0.500000 C
0.351706 0.382620 0.500000 C
