B2 C6
1.0
4.424107 0.000000 -0.121230
-0.674809 5.499443 -1.104647
0.000000 0.000000 3.891968
B C
2 6
direct
0.181540 0.407667 0.535346 B
0.475968 0.826726 0.511242 B
0.887462 0.225279 0.510773 C
0.485893 0.560565 0.589573 C
0.735949 0.443706 0.490256 C
0.085514 0.836711 0.460089 C
0.816781 0.977037 0.489562 C
0.997560 0.591874 0.413156 C
