B2 C6
1.0
4.645553 0.000000 0.000000
-2.139691 5.211596 0.000000
0.000000 0.000000 4.159079
B C
2 6
direct
0.371257 0.213330 0.500000 B
0.594553 0.698399 0.500000 B
0.039829 0.221316 0.500000 C
0.252662 0.686956 0.500000 C
0.971510 0.449881 0.500000 C
0.668427 0.451659 0.500000 C
0.900240 0.946430 0.500000 C
0.201522 0.915361 0.500000 C
