B2 C6
1.0
5.180361 0.000000 0.000000
0.000000 4.463965 0.000000
0.000000 0.000000 3.115848
B C
2 6
direct
0.372636 0.298597 0.500000 B
0.627364 0.798597 0.500000 B
0.880479 0.291717 0.500000 C
0.884176 0.618135 0.500000 C
0.638237 0.141551 0.500000 C
0.119521 0.791717 0.500000 C
0.115824 0.118135 0.500000 C
0.361763 0.641551 0.500000 C
