B1 C3
1.0
2.510095 0.000000 0.000000
0.000000 4.545161 0.000000
0.000000 0.000000 3.510138
B C
1 3
direct
0.500000 0.488484 0.500000 B
0.000000 0.296897 0.500000 C
0.000000 0.988064 0.500000 C
0.500000 0.826555 0.500000 C
