B2 C6
1.0
2.532667 0.000000 0.554326
0.945811 4.429065 1.741603
0.000000 0.000000 6.062931
B C
2 6
direct
0.246048 0.109702 0.898202 B
0.714624 0.713964 0.356788 B
0.478734 0.549164 0.993368 C
0.440474 0.822226 0.796826 C
0.610631 0.644557 0.634181 C
0.652557 0.351888 0.842998 C
0.339367 0.596117 0.225149 C
0.203200 0.907778 0.185822 C
