B2 C6
1.0
4.895634 0.000000 0.000000
-0.187328 7.634775 0.000000
0.000000 0.000000 4.063219
B C
2 6
direct
0.355586 0.890887 0.500000 B
0.102553 0.559508 0.500000 B
0.650968 0.890465 0.500000 C
0.130068 0.035373 0.500000 C
0.112753 0.210602 0.500000 C
0.922747 0.890933 0.500000 C
0.117702 0.747066 0.500000 C
0.107624 0.375165 0.500000 C
