B2 C6
1.0
7.188466 0.000000 0.000000
0.000000 3.947805 -0.840555
0.000000 0.000000 3.717608
B C
2 6
direct
0.117273 0.160239 0.752040 B
0.882727 0.160239 0.752040 B
0.586865 0.516649 0.749611 C
0.101719 0.776074 0.749528 C
0.777056 0.491484 0.748820 C
0.898281 0.776074 0.749528 C
0.413135 0.516649 0.749611 C
0.222944 0.491484 0.748820 C
