B2 C6
1.0
3.760800 0.000000 0.000000
-0.000000 3.914038 1.229848
0.000000 0.000000 6.843210
B C
2 6
direct
0.500000 0.592519 0.814962 B
0.500000 0.463990 0.072020 B
0.500000 0.459469 0.422064 C
0.500000 0.711974 0.222802 C
0.500000 0.526797 0.611696 C
0.500000 0.118467 0.422064 C
0.500000 0.861507 0.611696 C
0.500000 0.065224 0.222802 C
