E = -1                                  
   1.00000000000000     
     4.9796158037097271   -0.4393465109696191    1.0511527595255077
    -0.3913072982994535    6.3897354122826453   -0.8609382736401081
     0.9146512332489335   -0.5952570551787580    7.5949384833055200
   Ga   N    O    Zn
     2     2     2     2
Direct
  0.5721004395078477  0.6509922694650353  0.2202356550991353
  0.9281479851453844  0.6262530261079620  0.5002075478370573
  0.7507067395443354  0.1705832829913847  0.9250046502609582
  0.6455315386701419  0.1079499915548710  0.8145858637429761
  0.3113452061376636  0.6302333895374260  0.4704024049867271
  0.9245888728469572  0.6465564653407205  0.2500638041580458
  0.4180505433665348  0.6264647616267759  0.6953683732910292
  0.2495286747811337  0.6409668133758261  0.0241317006240768
 
  0.00000000E+00  0.00000000E+00  0.00000000E+00
  0.00000000E+00  0.00000000E+00  0.00000000E+00
  0.00000000E+00  0.00000000E+00  0.00000000E+00
  0.00000000E+00  0.00000000E+00  0.00000000E+00
  0.00000000E+00  0.00000000E+00  0.00000000E+00
  0.00000000E+00  0.00000000E+00  0.00000000E+00
  0.00000000E+00  0.00000000E+00  0.00000000E+00
  0.00000000E+00  0.00000000E+00  0.00000000E+00
