E = -1                                  
   1.00000000000000     
     4.5557984672342160   -0.3669370434909283   -0.3716527879814620
    -0.3505455320245048    4.7941863144584493    0.2675294993845284
    -0.3771072068423207    0.2999325265477960    4.7626974764979542
   Ga   N    O    Zn
     2     2     2     2
Direct
  0.8525968760789712  0.6305528443666710  0.8990362486106682
  0.3307265175290089  0.0725620464892184  0.0843123277498824
  0.2726862403510914  0.6333667412089246  0.0618646727268707
  0.4333912961973768  0.4831876038143243  0.9055177930253541
  0.8602511545563426  0.5600662239974477  0.5153969006112538
  0.8909430578694638  0.0330551234227212  0.9193111514758119
  0.6744301311307457  0.1533649747486006  0.5329991084335912
  0.2849747262869869  0.5338444419521009  0.4815617973665665
 
  0.00000000E+00  0.00000000E+00  0.00000000E+00
  0.00000000E+00  0.00000000E+00  0.00000000E+00
  0.00000000E+00  0.00000000E+00  0.00000000E+00
  0.00000000E+00  0.00000000E+00  0.00000000E+00
  0.00000000E+00  0.00000000E+00  0.00000000E+00
  0.00000000E+00  0.00000000E+00  0.00000000E+00
  0.00000000E+00  0.00000000E+00  0.00000000E+00
  0.00000000E+00  0.00000000E+00  0.00000000E+00
