E = -1                                  
   1.00000000000000     
     4.5893373435461857    0.1510467329772676   -0.2724246255056212
     0.1662768396627806    5.1716963269433087   -0.2495434369691791
    -0.2520808359557447   -0.2394979194732340    4.3642055304497811
   Ga   N    O    Zn
     2     2     2     2
Direct
  0.4085087747368449  0.8379195369077100  0.3349827904335952
  0.9695888406936388  0.7644190441473615  0.7773008805342141
  0.5770877061112772  0.6368719361602613  0.6945971652467531
  0.3747657650002672  0.6410767101701285  0.9275319098440856
  0.9280943029978976  0.1305828903921909  0.8475218300614066
  0.0197561644381352  0.6967908362129845  0.3361065533372936
  0.6141169363262745  0.2595265636868583  0.5562070946278038
  0.2080815096956659  0.3328124823225102  0.1257517759148489
 
  0.00000000E+00  0.00000000E+00  0.00000000E+00
  0.00000000E+00  0.00000000E+00  0.00000000E+00
  0.00000000E+00  0.00000000E+00  0.00000000E+00
  0.00000000E+00  0.00000000E+00  0.00000000E+00
  0.00000000E+00  0.00000000E+00  0.00000000E+00
  0.00000000E+00  0.00000000E+00  0.00000000E+00
  0.00000000E+00  0.00000000E+00  0.00000000E+00
  0.00000000E+00  0.00000000E+00  0.00000000E+00
