E = -1                                  
   1.00000000000000     
     3.6408234170088449    0.4843555406125855   -0.0575031650079640
     0.3448692225083985    6.2981390037939189   -0.1741231371475184
    -0.1586870107883158   -0.2777977675118779    4.7430135612945241
   Ga   N    O    Zn
     2     2     2     2
Direct
  0.5543041671166281  0.0178656690384405  0.9248602543396582
  0.4309672238432700  0.2329013898509970  0.3723393196837906
  0.2141263141157599  0.0351875773076664  0.5896166965132659
  0.7221454885423088  0.7491548759089867  0.0885379276560631
  0.8565688041112725  0.1700386738049317  0.6828355839401761
  0.2900217795144394  0.5087632922539136  0.5616659614888455
  0.2173496901382631  0.7602142020980461  0.2991960015770936
  0.8145165326180598  0.5258743197369886  0.7809482548011044
 
  0.00000000E+00  0.00000000E+00  0.00000000E+00
  0.00000000E+00  0.00000000E+00  0.00000000E+00
  0.00000000E+00  0.00000000E+00  0.00000000E+00
  0.00000000E+00  0.00000000E+00  0.00000000E+00
  0.00000000E+00  0.00000000E+00  0.00000000E+00
  0.00000000E+00  0.00000000E+00  0.00000000E+00
  0.00000000E+00  0.00000000E+00  0.00000000E+00
  0.00000000E+00  0.00000000E+00  0.00000000E+00
