E = -1                                  
   1.00000000000000     
     5.7513189507233378   -0.0971642419468516    0.5133009084025419
    -0.2334228561280098    3.1563367914210008    0.0498070025082705
     0.5090055523636122    0.0392917906514929    5.5012978129742534
   Ga   N    O    Zn
     2     2     2     2
Direct
  0.0071787437811523  0.7636113897103253  0.7806054995370568
  0.9986235675255849  0.3281168228704938  0.2947014933319284
  0.4102947960479178  0.9815147962955119  0.4163763051510818
  0.1553539452705139  0.8623091992331786  0.4320399507041230
  0.1399746991237289  0.2800699925201197  0.9176386202396256
  0.6725527873589582  0.6802046422461344  0.8688721631516638
  0.6011181120130500  0.5298652507792072  0.2619293995179124
  0.5149033488790798  0.1743079063450235  0.7278365683665970
 
  0.00000000E+00  0.00000000E+00  0.00000000E+00
  0.00000000E+00  0.00000000E+00  0.00000000E+00
  0.00000000E+00  0.00000000E+00  0.00000000E+00
  0.00000000E+00  0.00000000E+00  0.00000000E+00
  0.00000000E+00  0.00000000E+00  0.00000000E+00
  0.00000000E+00  0.00000000E+00  0.00000000E+00
  0.00000000E+00  0.00000000E+00  0.00000000E+00
  0.00000000E+00  0.00000000E+00  0.00000000E+00
