B2 C6
1.0
5.180317 0.000000 0.000000
0.000000 4.463990 0.000000
0.000000 0.000000 18.696144
B C
2 6
direct
0.872639 0.338906 0.500000 B
0.127361 0.838906 0.500000 B
0.615829 0.519357 0.500000 C
0.380478 0.345780 0.500000 C
0.384171 0.019357 0.500000 C
0.861757 0.995956 0.500000 C
0.138243 0.495956 0.500000 C
0.619522 0.845780 0.500000 C
