Zn2 Ga2 N2 O2
1.0
5.232849 0.000000 0.000000
-1.310274 5.165537 0.000000
-1.185804 -0.985178 5.434412
Zn Ga N O
2 2 2 2
direct
0.171312 0.582808 0.094982 Zn
0.474301 0.818736 0.806545 Zn
0.993607 0.952297 0.957893 Ga
0.269170 0.349447 0.579590 Ga
0.675473 0.204802 0.437201 N
0.643294 0.987771 0.380738 N
0.217561 0.040941 0.720289 O
0.155281 0.263198 0.222761 O
