E = -1                                  
   1.00000000000000     
     5.4493437383817387   -1.1438797022139844    1.2065310663234847
    -0.9906062755695239    4.4500880284724502    0.0776808750169563
     0.9273217577680768    0.1291387520241167    4.4299852981927428
   Ga   N    O    Zn
     2     2     2     2
Direct
  0.1750045347984685  0.8528706460235519  0.1374929813542010
  0.1749986093302390  0.3221117980094563  0.6374988327478872
  0.9379341667140521  0.9689698718260543  0.5060275222466586
  0.4120710017267044  0.2060369405783727  0.7689674951576890
  0.9475545183652846  0.4737822251738422  0.0012244233413108
  0.4024464274058392  0.7012315637671535  0.2737909514634347
  0.6749962310969245  0.0874968740210551  0.4082704946342470
  0.6749945105624937  0.5875000806005100  0.8667272990545660
 
  0.00000000E+00  0.00000000E+00  0.00000000E+00
  0.00000000E+00  0.00000000E+00  0.00000000E+00
  0.00000000E+00  0.00000000E+00  0.00000000E+00
  0.00000000E+00  0.00000000E+00  0.00000000E+00
  0.00000000E+00  0.00000000E+00  0.00000000E+00
  0.00000000E+00  0.00000000E+00  0.00000000E+00
  0.00000000E+00  0.00000000E+00  0.00000000E+00
  0.00000000E+00  0.00000000E+00  0.00000000E+00
