E = -1                                  
   1.00000000000000     
     4.7575178796260813    0.3524260405383145    0.2139180027132812
     0.3631577375073403    4.6086967001440238    0.2561858220456248
     0.2303265031550094    0.2480161777473487    4.8521521074731337
   Ga   N    O    Zn
     2     2     2     2
Direct
  0.3930876971304824  0.8101720356521444  0.1325828014882432
  0.9861967860658597  0.7182548982570079  0.6610023243576805
  0.5464012975509835  0.3899186082866123  0.1559721311349717
  0.4026193657093257  0.2278949743411035  0.9852168193282691
  0.0043504716415305  0.8381930558545619  0.0319446494138229
  0.3291949309860026  0.8741963205789423  0.5152431161394482
  0.4786709082177054  0.2535177754051597  0.5695261434984334
  0.9594785426981118  0.2878523316244597  0.0485120146391536
 
  0.00000000E+00  0.00000000E+00  0.00000000E+00
  0.00000000E+00  0.00000000E+00  0.00000000E+00
  0.00000000E+00  0.00000000E+00  0.00000000E+00
  0.00000000E+00  0.00000000E+00  0.00000000E+00
  0.00000000E+00  0.00000000E+00  0.00000000E+00
  0.00000000E+00  0.00000000E+00  0.00000000E+00
  0.00000000E+00  0.00000000E+00  0.00000000E+00
  0.00000000E+00  0.00000000E+00  0.00000000E+00
