E = -1                                  
   1.00000000000000     
     5.5815975136444873    0.7380451889444759    1.1383372473659708
     0.6403430341151115    5.6019471953338407    0.3157474847986291
     1.4972587973121725    0.1732922145798448    4.8276243945543751
   Ga   N    O    Zn
     2     2     2     2
Direct
  0.0556167678313556  0.3206941824169566  0.0931667478014173
  0.6215951655486641  0.1684390129878804  0.7732303549254131
  0.2458795306606353  0.8401909004084481  0.7057132017111644
  0.3739953089086835  0.7010159928281264  0.5206589838512984
  0.8377683606139019  0.0963131847918262  0.3426719552850844
  0.6946557503315042  0.8548948324619519  0.9262333229926734
  0.8631515355088187  0.7797069285494230  0.2010349183536643
  0.8073375805964219  0.5387449655553920  0.7372905150792819
 
  0.00000000E+00  0.00000000E+00  0.00000000E+00
  0.00000000E+00  0.00000000E+00  0.00000000E+00
  0.00000000E+00  0.00000000E+00  0.00000000E+00
  0.00000000E+00  0.00000000E+00  0.00000000E+00
  0.00000000E+00  0.00000000E+00  0.00000000E+00
  0.00000000E+00  0.00000000E+00  0.00000000E+00
  0.00000000E+00  0.00000000E+00  0.00000000E+00
  0.00000000E+00  0.00000000E+00  0.00000000E+00
