E = -1                                  
   1.00000000000000     
     4.5255293536612431   -0.3098318540567724   -0.2707743403393125
    -0.3298785704173841    4.6224927811199832    0.4095017772113843
    -0.1707167468894844    0.2398453087920221    5.0497959942144250
   Ga   N    O    Zn
     2     2     2     2
Direct
  0.7803213044124347  0.9414456035457632  0.9137871248699465
  0.2062734005074196  0.5288975395821618  0.7430312720064370
  0.6134306620158424  0.5198254413569019  0.9121692048788026
  0.7828994226721613  0.3568097914950438  0.7728239404829783
  0.7869215485131223  0.9136746063275115  0.2901932105119567
  0.1717853322402229  0.9169657014956736  0.7991106593125794
  0.6138205423052064  0.4773982797334060  0.3480800382613749
  0.1445477873335995  0.1449830364635498  0.4208045496759137
 
  0.00000000E+00  0.00000000E+00  0.00000000E+00
  0.00000000E+00  0.00000000E+00  0.00000000E+00
  0.00000000E+00  0.00000000E+00  0.00000000E+00
  0.00000000E+00  0.00000000E+00  0.00000000E+00
  0.00000000E+00  0.00000000E+00  0.00000000E+00
  0.00000000E+00  0.00000000E+00  0.00000000E+00
  0.00000000E+00  0.00000000E+00  0.00000000E+00
  0.00000000E+00  0.00000000E+00  0.00000000E+00
