E = -1                                  
   1.00000000000000     
     4.7808637226094381    0.3091776367901073    0.1923473249620009
     0.3215196067251341    4.5429081514289136    0.3623969551736493
     0.2193240415231036    0.3540249312776035    4.8254663431330282
   Ga   N    O    Zn
     2     2     2     2
Direct
  0.3514988963220207  0.8043494625967436  0.0865136953491820
  0.9424773012596702  0.7041169714412088  0.6203287459527732
  0.5126458501110471  0.3889307066964693  0.2134958105932596
  0.3620013397171789  0.2305165837273368  0.0490231027403407
  0.9623710257135448  0.7871798472381825  0.2266508491276310
  0.2916949056210671  0.8507218139977738  0.6863417932497283
  0.4515623644292976  0.2732372102719345  0.6271329599653324
  0.9257483168261635  0.3609474040303286  0.0905130430217614
 
  0.00000000E+00  0.00000000E+00  0.00000000E+00
  0.00000000E+00  0.00000000E+00  0.00000000E+00
  0.00000000E+00  0.00000000E+00  0.00000000E+00
  0.00000000E+00  0.00000000E+00  0.00000000E+00
  0.00000000E+00  0.00000000E+00  0.00000000E+00
  0.00000000E+00  0.00000000E+00  0.00000000E+00
  0.00000000E+00  0.00000000E+00  0.00000000E+00
  0.00000000E+00  0.00000000E+00  0.00000000E+00
