E = -1                                  
   1.00000000000000     
     5.5801766263362591    0.0516526464668151    0.0120148776873758
     0.0504422629352913    5.7510612056578605   -0.0031555946121549
    -0.0069909350919138    0.0018392427924342    3.2397492535581214
   Ga   N    O    Zn
     2     2     2     2
Direct
  0.5972204715759277  0.9685538271858093  0.3124990747973414
  0.1350182206960126  0.8041393012492948  0.8125020574356323
  0.2524125516385861  0.9525762574100740  0.3125014505805981
  0.1222977177710744  0.4773891760884209  0.8125021517411467
  0.6229432158858483  0.3002582428247325  0.3124968717921496
  0.7547305061450520  0.8607980963049934  0.8124994477123721
  0.2308781506231861  0.3181048171156864  0.3125026625367466
  0.7844991656643201  0.4181802818209767  0.8124962834039988
 
  0.00000000E+00  0.00000000E+00  0.00000000E+00
  0.00000000E+00  0.00000000E+00  0.00000000E+00
  0.00000000E+00  0.00000000E+00  0.00000000E+00
  0.00000000E+00  0.00000000E+00  0.00000000E+00
  0.00000000E+00  0.00000000E+00  0.00000000E+00
  0.00000000E+00  0.00000000E+00  0.00000000E+00
  0.00000000E+00  0.00000000E+00  0.00000000E+00
  0.00000000E+00  0.00000000E+00  0.00000000E+00
