E = -1                                  
   1.00000000000000     
     3.7044568714052217   -0.7905383893792117    0.1630820911584406
    -1.0536462711831318    6.4495936897198547   -0.4225167219946528
     0.2802263276600329   -0.1201513651015768    4.9439009612973983
   Ga   N    O    Zn
     2     2     2     2
Direct
 -0.0034441979929025  0.6491005575652893  0.6889405472323670
  0.7709493172220745  0.5571980729542944  0.1891447187406701
  0.4055673019229955  0.2508623411960674  0.1379700577590380
  0.5039677100976249  0.8876623373487944  0.5447607332946686
  0.8352461777018039  0.9403426014474648  0.7059654990097132
  0.6215498981185017  0.8392538905984989  0.2753448024237682
  0.8495095537817379  0.1359188394456236  0.0598376382911379
  0.3166542391481534  0.1396613594439582  0.4980360032486602
 
  0.00000000E+00  0.00000000E+00  0.00000000E+00
  0.00000000E+00  0.00000000E+00  0.00000000E+00
  0.00000000E+00  0.00000000E+00  0.00000000E+00
  0.00000000E+00  0.00000000E+00  0.00000000E+00
  0.00000000E+00  0.00000000E+00  0.00000000E+00
  0.00000000E+00  0.00000000E+00  0.00000000E+00
  0.00000000E+00  0.00000000E+00  0.00000000E+00
  0.00000000E+00  0.00000000E+00  0.00000000E+00
