E = -1                                  
   1.00000000000000     
     4.3644445885987437    0.2635559765558232   -0.2219643555206365
     0.2617413997507027    4.5902316322537242   -0.1376268935848485
    -0.2688245063023738   -0.1804075256114432    5.1703451566330623
   Ga   N    O    Zn
     2     2     2     2
Direct
  0.3978178164860769  0.8820553031900811  0.9605694363134789
  0.8400290802078310  0.3209408973654961  0.8870558698584821
  0.4804223490123241  0.4895428219547749  0.0881261467781045
  0.2474833863200825  0.2872222383102505  0.0838917771571494
  0.8389510344651724  0.9321999706496035  0.0282353293621307
  0.3274098883522031  0.8406398258520466  0.5944263912525276
  0.6186173005556905  0.5266407159137819  0.4654989456243848
  0.0492691446006027  0.1207582267639575  0.3921961036537419
 
  0.00000000E+00  0.00000000E+00  0.00000000E+00
  0.00000000E+00  0.00000000E+00  0.00000000E+00
  0.00000000E+00  0.00000000E+00  0.00000000E+00
  0.00000000E+00  0.00000000E+00  0.00000000E+00
  0.00000000E+00  0.00000000E+00  0.00000000E+00
  0.00000000E+00  0.00000000E+00  0.00000000E+00
  0.00000000E+00  0.00000000E+00  0.00000000E+00
  0.00000000E+00  0.00000000E+00  0.00000000E+00
