E = -1                                  
   1.00000000000000     
     4.5388690406990957   -0.3326661150745290   -0.4028856838236388
    -0.2936942397014586    4.7804506913280544    0.2140250026552316
    -0.3110750412810571    0.2020358586799575    4.8290494285445922
   Ga   N    O    Zn
     2     2     2     2
Direct
  0.9790082843241376  0.9824639932361084  0.0046311255890169
  0.0793864476955669  0.5734617142403926  0.5384995394716120
  0.6640030213657707  0.4124149473117472  0.4115145928153028
  0.5055483161693496  0.5630233571910678  0.5759889866011001
  0.1256945118805398  0.6331996833686093  0.9386676504622584
  0.0623144933671941  0.9626722977665788  0.3983076262078555
  0.6358184209332974  0.9992757541852777  0.5344803848291000
  0.5482265042641596  0.4734882527002122  0.9979100940237530
 
  0.00000000E+00  0.00000000E+00  0.00000000E+00
  0.00000000E+00  0.00000000E+00  0.00000000E+00
  0.00000000E+00  0.00000000E+00  0.00000000E+00
  0.00000000E+00  0.00000000E+00  0.00000000E+00
  0.00000000E+00  0.00000000E+00  0.00000000E+00
  0.00000000E+00  0.00000000E+00  0.00000000E+00
  0.00000000E+00  0.00000000E+00  0.00000000E+00
  0.00000000E+00  0.00000000E+00  0.00000000E+00
