B2 C6
1.0
4.605076 0.000000 0.000000
-0.393395 6.381290 0.000000
0.000000 0.000000 21.875190
B C
2 6
direct
0.006590 0.325883 0.500000 B
0.805223 0.526063 0.500000 B
0.149072 0.533446 0.500000 C
0.008202 0.087269 0.500000 C
0.635142 0.723931 0.500000 C
0.840222 0.895658 0.500000 C
0.325766 0.723889 0.500000 C
0.146449 0.898145 0.500000 C
