E = -1                                  
   1.00000000000000     
     3.2717852874996911    0.0316514813510417   -0.6795009459209843
     0.3507651561388966    7.4164372877580425    0.3277054448118084
    -0.5448847904217120    0.1629811633080149    5.2235059556766119
   Ga   N    O    Zn
     2     2     2     2
Direct
  0.2428276195511094  0.2500636367154145  0.5764172272035414
  0.8886818207270512  0.5804421089443850  0.9276046279615618
  0.5741990839780375  0.1358803573034292  0.0503682818022385
  0.7499576541865033 -0.0026429508548192  0.1223574923474084
  0.7745816001106783  0.3919798488041462  0.6662469244938344
  0.7156891857155577  0.7558994096348457  0.6000912568736086
  0.5729818663288262  0.5762572086275203  0.3007888855989037
  0.1810811694022413  0.9121203808250725  0.5561253037188943
 
  0.00000000E+00  0.00000000E+00  0.00000000E+00
  0.00000000E+00  0.00000000E+00  0.00000000E+00
  0.00000000E+00  0.00000000E+00  0.00000000E+00
  0.00000000E+00  0.00000000E+00  0.00000000E+00
  0.00000000E+00  0.00000000E+00  0.00000000E+00
  0.00000000E+00  0.00000000E+00  0.00000000E+00
  0.00000000E+00  0.00000000E+00  0.00000000E+00
  0.00000000E+00  0.00000000E+00  0.00000000E+00
