E = -1                                  
   1.00000000000000     
     3.2945646810937226   -0.6719867329192896    0.6731796507596378
    -0.5622749071681371    5.9428669775756973   -0.0482313180954096
     0.5510577616614463   -0.0516037551644984    5.9837818022023308
   Ga   N    O    Zn
     2     2     2     2
Direct
  0.5817249117112051  0.1964443556242455  0.9204342706043119
  0.9725514188789234  0.8098608783306902  0.7522055915743348
  0.8249477888697653  0.4777333326335338  0.7153674325037407
  0.5883633026581697  0.9443236726444458  0.6550227492909130
  0.4582808170243403  0.2851327924304674  0.2561093711624626
  0.9532004624921332  0.0284625521028783  0.0095553065888847
  0.8197451624451397  0.1004245911398388  0.3485680718278399
  0.4011861359203175  0.4576178250938900  0.5427372064475016
 
  0.00000000E+00  0.00000000E+00  0.00000000E+00
  0.00000000E+00  0.00000000E+00  0.00000000E+00
  0.00000000E+00  0.00000000E+00  0.00000000E+00
  0.00000000E+00  0.00000000E+00  0.00000000E+00
  0.00000000E+00  0.00000000E+00  0.00000000E+00
  0.00000000E+00  0.00000000E+00  0.00000000E+00
  0.00000000E+00  0.00000000E+00  0.00000000E+00
  0.00000000E+00  0.00000000E+00  0.00000000E+00
