E = -1                                  
   1.00000000000000     
     5.0467713307918558   -0.5935100543288798   -0.4857162623311169
    -0.7344055987404075    7.7114270313269193   -0.3611903631363476
    -0.1946581101339540    0.2049303674767163    3.2079987698440262
   Ga   N    O    Zn
     2     2     2     2
Direct
  0.5509861885089646  0.8251435863472559  0.1921469553490082
  0.8508202491295829  0.1747303127266704  0.6886691118296555
  0.7613245335364099  0.9087792599598891  0.7350065152174334
  0.4561993786411284  0.5573262623868522  0.0949266153679617
  0.2897480263732644  0.5147342170933441  0.7580196473116516
  0.0920455696611672  0.1828170963385279  0.2475352608262519
  0.1231998653061555  0.9132672202872788  0.0613369047414122
  0.4756761888433431  0.3232020448601863  0.4223589893566284
 
  0.00000000E+00  0.00000000E+00  0.00000000E+00
  0.00000000E+00  0.00000000E+00  0.00000000E+00
  0.00000000E+00  0.00000000E+00  0.00000000E+00
  0.00000000E+00  0.00000000E+00  0.00000000E+00
  0.00000000E+00  0.00000000E+00  0.00000000E+00
  0.00000000E+00  0.00000000E+00  0.00000000E+00
  0.00000000E+00  0.00000000E+00  0.00000000E+00
  0.00000000E+00  0.00000000E+00  0.00000000E+00
