E = -1                                  
   1.00000000000000     
     5.5501419345548797   -0.0437152845588434    0.0731049833847035
     0.0237578169495542    3.2660914436014505    0.1523346719514543
    -0.1338688681924734   -0.2826921074315440    6.0811264076644402
   Ga   N    O    Zn
     2     2     2     2
Direct
  0.4059134194386934  0.8624970297535862  0.1339423020538125
  0.0963946595112225  0.8624990635036192  0.6887069389016069
  0.5774270119736414  0.3624956695965781  0.1612580652112940
  0.0958404114722679  0.8624820918578580  0.0046369550807642
  0.9318064598837665  0.3625061283917208  0.6054560184896514
  0.3883546229549603  0.8625241852791972  0.5363799689924643
  0.5942563111197570  0.3625144144088737  0.4986487761321597
  0.9100071036456836  0.3624814172085591  0.0709709751382635
 
  0.00000000E+00  0.00000000E+00  0.00000000E+00
  0.00000000E+00  0.00000000E+00  0.00000000E+00
  0.00000000E+00  0.00000000E+00  0.00000000E+00
  0.00000000E+00  0.00000000E+00  0.00000000E+00
  0.00000000E+00  0.00000000E+00  0.00000000E+00
  0.00000000E+00  0.00000000E+00  0.00000000E+00
  0.00000000E+00  0.00000000E+00  0.00000000E+00
  0.00000000E+00  0.00000000E+00  0.00000000E+00
