E = -1                                  
   1.00000000000000     
     4.4583986610081512   -1.1399224901977099   -0.1990204877002769
    -1.0582386523239871    5.4306554115690870   -1.0944605484980432
    -0.0783194888695255   -1.0817022301177592    4.4766637546829475
   Ga   N    O    Zn
     2     2     2     2
Direct
  0.7712715119850458  0.7249699187086662  0.0380406280753231
  0.5380475543676133  0.2249751393355240  0.2712763537088532
  0.4309740896696454  0.4750306876242938  0.1630129189432623
  0.6630055118938109  0.9750267026339264  0.9309700541275137
  0.8883564698019357  0.4750036073155215  0.6633456872807700
  0.1633430994538670  0.9750067130936871  0.3883534690906646
  0.0380286126722526  0.2249890099812560  0.8069780814901647
  0.3069731501558481  0.7249982213071433  0.5380228072834595
 
  0.00000000E+00  0.00000000E+00  0.00000000E+00
  0.00000000E+00  0.00000000E+00  0.00000000E+00
  0.00000000E+00  0.00000000E+00  0.00000000E+00
  0.00000000E+00  0.00000000E+00  0.00000000E+00
  0.00000000E+00  0.00000000E+00  0.00000000E+00
  0.00000000E+00  0.00000000E+00  0.00000000E+00
  0.00000000E+00  0.00000000E+00  0.00000000E+00
  0.00000000E+00  0.00000000E+00  0.00000000E+00
