E = -1                                  
   1.00000000000000     
     3.0679806230304703    0.2611002565936362   -0.0050990744703435
    -0.4849375737684273    7.0420542527321457    1.0812961352452843
    -0.2782832597686380    1.5375969542989369    6.8598696782382671
   Ga   N    O    Zn
     2     2     2     2
Direct
  0.2016326841224112  0.2970596259675497  0.1713108095244878
  0.7885848755063316  0.2083182145154205  0.6345464349487115
  0.2159084296051210  0.7861602741760391  0.5667020818091828
  0.2627610383510878  0.6582699492199366  0.5136328541311020
  0.7165623368008988  0.2423098701826039  0.3601229682493529
  0.1899778159527598  0.5805441910709632  0.0567591521365725
  0.6853891403777488  0.7547598647933497  0.0188598120611142
  0.2391836792836446  0.0725780100741366  0.9780658871394868
 
  0.00000000E+00  0.00000000E+00  0.00000000E+00
  0.00000000E+00  0.00000000E+00  0.00000000E+00
  0.00000000E+00  0.00000000E+00  0.00000000E+00
  0.00000000E+00  0.00000000E+00  0.00000000E+00
  0.00000000E+00  0.00000000E+00  0.00000000E+00
  0.00000000E+00  0.00000000E+00  0.00000000E+00
  0.00000000E+00  0.00000000E+00  0.00000000E+00
  0.00000000E+00  0.00000000E+00  0.00000000E+00
