E = -1                                  
   1.00000000000000     
     4.7358186671707339    0.3035962789105695    0.3200091030742752
     0.3339398910809131    4.5059134201918480    0.2941110286539205
     0.3465090084698805    0.2679757742286973    4.8952248455857221
   Ga   N    O    Zn
     2     2     2     2
Direct
  0.3859150323455545  0.8639516536517569  0.1754651128235842
  0.9463986747015877  0.7566282831874370  0.5984016550451987
  0.5374075112150675  0.4382708010587691  0.1811786327769032
  0.3934851624106284  0.2759329566206453  0.0153402356151868
  0.9730390212948669  0.8350335346097228  0.2035373359399879
  0.3279520577644742  0.9045273484957157  0.5713092091103027
  0.4780483189759405  0.3026707693095473  0.6013190730062814
  0.9577542212918804  0.4229846530663889  0.0534487456825824
 
  0.00000000E+00  0.00000000E+00  0.00000000E+00
  0.00000000E+00  0.00000000E+00  0.00000000E+00
  0.00000000E+00  0.00000000E+00  0.00000000E+00
  0.00000000E+00  0.00000000E+00  0.00000000E+00
  0.00000000E+00  0.00000000E+00  0.00000000E+00
  0.00000000E+00  0.00000000E+00  0.00000000E+00
  0.00000000E+00  0.00000000E+00  0.00000000E+00
  0.00000000E+00  0.00000000E+00  0.00000000E+00
