E = -1                                  
   1.00000000000000     
     6.2051656771865735    0.5719029361645707    0.5744748371262521
     0.5476726953116384    3.1752074604545029   -0.0421854884508630
     0.1231280089625953    0.0490650174597371    5.2839796842026834
   Ga   N    O    Zn
     2     2     2     2
Direct
  0.2552866703567966  0.9286032259038964  0.0707760297299551
  0.8644763680396385  0.1239966831331711  0.6520438864813467
  0.8929290583419742  0.6097656581539115  0.8625127839823017
  0.1334342185915677  0.4895277825077978  0.9196911812763011
  0.1465230336011312  0.9830391539604685  0.4423800497860140
  0.6440452996388695  0.2341805290224269  0.4272543891684031
  0.6405447168517963  0.7359192808951558  0.1519331873067476
  0.3227606345782104  0.3949676864231790  0.5734084922689385
 
  0.00000000E+00  0.00000000E+00  0.00000000E+00
  0.00000000E+00  0.00000000E+00  0.00000000E+00
  0.00000000E+00  0.00000000E+00  0.00000000E+00
  0.00000000E+00  0.00000000E+00  0.00000000E+00
  0.00000000E+00  0.00000000E+00  0.00000000E+00
  0.00000000E+00  0.00000000E+00  0.00000000E+00
  0.00000000E+00  0.00000000E+00  0.00000000E+00
  0.00000000E+00  0.00000000E+00  0.00000000E+00
