E = -1                                  
   1.00000000000000     
     4.7813935745815970   -0.3601143637299468   -0.2019575924062967
    -0.3781251856935646    4.5549700387590120    0.1698001389105415
    -0.2241060818536815    0.2150493999233419    4.6489718381741900
   Ga   N    O    Zn
     2     2     2     2
Direct
  0.1579374455141776  0.7119860643000105  0.0509008710272203
  0.3374246647222038  0.1779941895983093  0.5061273557012049
  0.3144376872188596  0.1224690705271124  0.9385571859530614
  0.1564168005241125  0.2884214326780814  0.0994976465376803
  0.1712931131685967  0.7572684660141979  0.4671511310412916
  0.7641540295422236  0.7245152896824411  0.9361184706840172
  0.7328650607947476  0.1471793028156719  0.0601202783320240
  0.7654711985150702  0.5701661843841895  0.5415270607235091
 
  0.00000000E+00  0.00000000E+00  0.00000000E+00
  0.00000000E+00  0.00000000E+00  0.00000000E+00
  0.00000000E+00  0.00000000E+00  0.00000000E+00
  0.00000000E+00  0.00000000E+00  0.00000000E+00
  0.00000000E+00  0.00000000E+00  0.00000000E+00
  0.00000000E+00  0.00000000E+00  0.00000000E+00
  0.00000000E+00  0.00000000E+00  0.00000000E+00
  0.00000000E+00  0.00000000E+00  0.00000000E+00
