E = -1                                  
   1.00000000000000     
     3.1905291668264661   -0.8894972103908942    0.0254158498882977
    -1.1284863884532668    8.4236146149819984    1.3014360688413142
     0.1845099265810951    1.0857186771983887    5.2836658829140841
   Ga   N    O    Zn
     2     2     2     2
Direct
  0.7895972319557490  0.7807615241042375  0.4779379227841938
  0.1803573075856597  0.0854150729002500  0.1569866830967236
  0.6557187250065624  0.2522858317613949  0.2758093669978809
  0.1596755601512127  0.6563479041972425  0.6279011460813279
  0.4544571600152131  0.7886060991142362  0.7583107118000850
  0.2229824214674669  0.2647761553243008  0.8240544000998284
  0.1486122821570102  0.2545547255128472  0.4772744132141319
  0.8885993116611466  0.4172526870854832 -0.0982746440741723
 
  0.00000000E+00  0.00000000E+00  0.00000000E+00
  0.00000000E+00  0.00000000E+00  0.00000000E+00
  0.00000000E+00  0.00000000E+00  0.00000000E+00
  0.00000000E+00  0.00000000E+00  0.00000000E+00
  0.00000000E+00  0.00000000E+00  0.00000000E+00
  0.00000000E+00  0.00000000E+00  0.00000000E+00
  0.00000000E+00  0.00000000E+00  0.00000000E+00
  0.00000000E+00  0.00000000E+00  0.00000000E+00
