E = -1                                  
   1.00000000000000     
     5.3220133011171420    0.5030238903840475   -0.4450122317176366
     0.4446270969754672    4.5281344132010668    0.0864351061461820
    -0.4656322517469241    0.1100166263958267    4.2757986419638501
   Ga   N    O    Zn
     2     2     2     2
Direct
  0.2678052321983205  0.8556186776177337  0.0669354137070392
  0.7899986781427771  0.0292464369904377  0.3974966328771181
  0.4728840576871242  0.9184293719772155  0.4971186625082899
  0.4601678140530772  0.6850177558214006  0.7469851956226428
  0.0248296089860102  0.6705610730120627  0.2424310330288933
  0.0273056753896063  0.1615038649954124  0.7748747391899350
  0.2821404225055804  0.3517634932535278  0.5699154224003161
  0.7748685110374839  0.4278593263322115  0.0042429006657698
 
  0.00000000E+00  0.00000000E+00  0.00000000E+00
  0.00000000E+00  0.00000000E+00  0.00000000E+00
  0.00000000E+00  0.00000000E+00  0.00000000E+00
  0.00000000E+00  0.00000000E+00  0.00000000E+00
  0.00000000E+00  0.00000000E+00  0.00000000E+00
  0.00000000E+00  0.00000000E+00  0.00000000E+00
  0.00000000E+00  0.00000000E+00  0.00000000E+00
  0.00000000E+00  0.00000000E+00  0.00000000E+00
