Zn2 Ga2 N2 O2
1.0
5.348873 0.000000 0.000000
-2.055497 5.038548 0.000000
-0.603833 -1.349648 5.352265
Zn Ga N O
2 2 2 2
direct
0.280939 0.698652 0.728638 Zn
0.823027 0.777439 0.510138 Zn
0.955006 0.998802 0.979344 Ga
0.176462 0.554300 0.117733 Ga
0.648214 0.297240 0.591338 N
0.544493 0.247261 0.751878 N
0.420334 0.664262 0.426803 O
0.951526 0.762044 0.194127 O
