B2 C6
1.0
4.424107 0.000000 -0.121230
-0.674809 5.499443 -1.104647
0.000000 0.000000 19.459840
B C
2 6
direct
0.181540 0.407667 0.507069 B
0.475968 0.826726 0.502248 B
0.887462 0.225279 0.502155 C
0.485893 0.560565 0.517915 C
0.735949 0.443706 0.498051 C
0.085514 0.836711 0.492018 C
0.816781 0.977037 0.497912 C
0.997560 0.591874 0.482631 C
