E = -1                                  
   1.00000000000000     
     4.7807013018956841    0.3048773013385072    0.2130368488142411
     0.3244385043338618    4.5413145267633634    0.3741510700764046
     0.2002928602416034    0.3427811496252982    4.8273309716639696
   Ga   N    O    Zn
     2     2     2     2
Direct
  0.4014291048588362  0.8418080423162961  0.0739044263391644
  0.9923964186988793  0.7417568304845159  0.6079529999606336
  0.5626452247849377  0.4263890201537144  0.2009341488482344
  0.4120589111677412  0.2680007111762042  0.0364520041756231
  0.0123778308240003  0.8247157479955588  0.2142321625856045
  0.3415858843226209  0.8883069575526001  0.6738202528709039
  0.5017467020460269  0.3106268562300251  0.6145608568993737
  0.9757599232969462  0.3983958340910663  0.0781431483204768
 
  0.00000000E+00  0.00000000E+00  0.00000000E+00
  0.00000000E+00  0.00000000E+00  0.00000000E+00
  0.00000000E+00  0.00000000E+00  0.00000000E+00
  0.00000000E+00  0.00000000E+00  0.00000000E+00
  0.00000000E+00  0.00000000E+00  0.00000000E+00
  0.00000000E+00  0.00000000E+00  0.00000000E+00
  0.00000000E+00  0.00000000E+00  0.00000000E+00
  0.00000000E+00  0.00000000E+00  0.00000000E+00
