E = -1                                  
   1.00000000000000     
     4.5999462623266236    0.3055594292201148   -0.2978324610608795
     0.3489840132344365    4.6047178530465667   -0.3061866331818155
    -0.3261250738711725   -0.2730307396192461    4.9716665163338041
   Ga   N    O    Zn
     2     2     2     2
Direct
  0.7190521786937710  0.9246336707827275  0.6729376081547382
  0.2969743716454257  0.5239327054984730  0.8615155627753227
  0.8800631257564085  0.4967806136424737  0.6816432302277401
  0.7212432368730924  0.3344951470562308  0.8348449959273705
  0.7689233208825923  0.9455043450350372  0.3034305715311745
  0.3173864078592399  0.8735859803254188  0.6859587334104656
  0.8082333723237107  0.3562697751265214  0.2569600737489395
  0.1881239859657553  0.7447977625331198  0.3027092242242497
 
  0.00000000E+00  0.00000000E+00  0.00000000E+00
  0.00000000E+00  0.00000000E+00  0.00000000E+00
  0.00000000E+00  0.00000000E+00  0.00000000E+00
  0.00000000E+00  0.00000000E+00  0.00000000E+00
  0.00000000E+00  0.00000000E+00  0.00000000E+00
  0.00000000E+00  0.00000000E+00  0.00000000E+00
  0.00000000E+00  0.00000000E+00  0.00000000E+00
  0.00000000E+00  0.00000000E+00  0.00000000E+00
