B2 C6
1.0
4.102709 0.000000 0.000000
2.051354 6.528512 0.000000
0.000000 0.000000 18.804000
B C
2 6
direct
0.592519 0.814962 0.500000 B
0.463990 0.072020 0.500000 B
0.459469 0.422064 0.500000 C
0.711974 0.222802 0.500000 C
0.526797 0.611696 0.500000 C
0.118467 0.422064 0.500000 C
0.861507 0.611696 0.500000 C
0.065224 0.222802 0.500000 C
