E = -1                                  
   1.00000000000000     
     5.2727735422303095    0.0222393125177914   -0.0035871173686957
    -0.0855757928380668    5.6659378950282751    0.0035337185199836
     0.0022883726502792   -0.0020740266881631    3.2765506778209876
   Ga   N    O    Zn
     2     2     2     2
Direct
  0.3227150520612666  0.0069083801690907  0.1499638180680989
  0.8393704155998306  0.1887535106060753  0.6499745482961403
  0.7213950045603957  0.4983704272270911  0.6499703519601671
  0.2054044696109151  0.1537189336965937  0.6499835829495965
  0.2260237182781959  0.6853543601185095  0.1500596965053823
  0.7020322452855853  0.0187670435503508  0.1499814957700158
  0.3478684162707893  0.4962471249163848  0.6500906527961501
  0.8351906783330170  0.6518802197158995  0.1499758536544589
 
  0.00000000E+00  0.00000000E+00  0.00000000E+00
  0.00000000E+00  0.00000000E+00  0.00000000E+00
  0.00000000E+00  0.00000000E+00  0.00000000E+00
  0.00000000E+00  0.00000000E+00  0.00000000E+00
  0.00000000E+00  0.00000000E+00  0.00000000E+00
  0.00000000E+00  0.00000000E+00  0.00000000E+00
  0.00000000E+00  0.00000000E+00  0.00000000E+00
  0.00000000E+00  0.00000000E+00  0.00000000E+00
