E = -1                                  
   1.00000000000000     
     5.3349380186948947   -0.0323137266338886   -0.0165127716655555
     0.0042804195824824    5.5915655601777603   -0.1071495522831195
     0.0106393497946146    0.0629259864174405    3.2814258301641317
   Ga   N    O    Zn
     2     2     2     2
Direct
  0.1695561687109594  0.7966239528961369  0.6875000914045531
  0.1852569511815593  0.2754640528894519  0.1875072977363222
  0.8196427863693497  0.7766471219927535  0.6874861641840073
  0.3055268941188162  0.1242704530444038  0.6875060957081706
  0.2976737914565132  0.6172850452298436  0.1874986867968483
  0.8288327361036799  0.2803627228258137  0.1874948645999107
  0.7075377873301363  0.6254481228553870  0.1874969683998400
  0.6859728847289636  0.1038985282662185  0.6875098311703550
 
  0.00000000E+00  0.00000000E+00  0.00000000E+00
  0.00000000E+00  0.00000000E+00  0.00000000E+00
  0.00000000E+00  0.00000000E+00  0.00000000E+00
  0.00000000E+00  0.00000000E+00  0.00000000E+00
  0.00000000E+00  0.00000000E+00  0.00000000E+00
  0.00000000E+00  0.00000000E+00  0.00000000E+00
  0.00000000E+00  0.00000000E+00  0.00000000E+00
  0.00000000E+00  0.00000000E+00  0.00000000E+00
