B1 C3
1.0
3.537916 0.000000 0.000000
0.000000 3.672469 0.000000
0.000000 0.000000 20.468874
B C
1 3
direct
0.500000 0.100957 0.500000 B
0.500000 0.520765 0.500000 C
0.802856 0.789138 0.500000 C
0.197144 0.789138 0.500000 C
