E = -1                                  
   1.00000000000000     
     9.1232672049174042   -0.3956407158862367    0.1661001560947118
     0.1408266287887757    3.2446621684368848    0.0039415254576868
    -0.0598514367434711   -0.0013874969849574    3.2815377928751741
   Ga   N    O    Zn
     2     2     2     2
Direct
  0.8212791746286898  0.5624978141513898  0.4750392640124984
  0.0656696538370653  0.0624845138189399  0.9750497898407269
  0.9549897643198982  0.5625007953069396  0.9750398227030043
  0.7092763208655546  0.0625141926154567  0.4749974437828077
  0.4433866016922137  0.5625152392031670  0.9749421450953162
  0.1880737282073711  0.0625008260945224  0.4750279847798449
  0.3308380722882853  0.5624847995072340  0.4749218182225747
  0.5864866841609238  0.0625018193023506  0.9749817315632169
 
  0.00000000E+00  0.00000000E+00  0.00000000E+00
  0.00000000E+00  0.00000000E+00  0.00000000E+00
  0.00000000E+00  0.00000000E+00  0.00000000E+00
  0.00000000E+00  0.00000000E+00  0.00000000E+00
  0.00000000E+00  0.00000000E+00  0.00000000E+00
  0.00000000E+00  0.00000000E+00  0.00000000E+00
  0.00000000E+00  0.00000000E+00  0.00000000E+00
  0.00000000E+00  0.00000000E+00  0.00000000E+00
