E = -1                                  
   1.00000000000000     
     5.5591208526366120   -0.4409387927824583   -1.2785080896953713
    -0.2042996551403090    4.1062464325830623   -0.1776892560933226
    -1.1687942391913348    0.0302946436285478    5.2213073111330726
   Ga   N    O    Zn
     2     2     2     2
Direct
  0.7932667625304407  0.8721607394953451  0.6734005837003171
  0.3444327949440839  0.5523075616686470  0.8598756504780112
  0.0289687673023352  0.5731146772408378  0.9060214952464697
  0.9465137026735745  0.2469886198501670  0.9609421031087204
  0.8300588699120505  0.8979299112935826  0.3470189517518118
  0.4269228152251328  0.7856737415212681  0.5924951042188521
  0.6763666625327076  0.2392097103608397  0.1081944421821941
  0.1534696248796561  0.9326150385692999  0.2520516693136197