B2 C6
1.0
4.675889 0.000000 1.296310
1.898847 5.610088 1.296310
0.000000 0.000000 20.740962
B C
2 6
direct
0.109702 0.898202 0.473168 B
0.713964 0.356788 0.531740 B
0.549164 0.993368 0.502254 C
0.822226 0.796826 0.497471 C
0.644557 0.634181 0.518741 C
0.351888 0.842998 0.523982 C
0.596117 0.225149 0.484833 C
0.907778 0.185822 0.467812 C
