E = -1                                  
   1.00000000000000     
     5.0476549826476713    0.3237914779547721   -0.2329553172216247
     0.3312134244619153    4.6291321211524510   -0.3195856194856471
    -0.2111223840783816   -0.3287927269778315    4.5269108841256838
   Ga   N    O    Zn
     2     2     2     2
Direct
  0.0319564187114552  0.0710667619977757  0.5063454037682644
  0.8611082675866976  0.6586354061338401  0.9320086303485455
  0.8629050145600156  0.0802473362838437  0.0991375166632586
  0.0019697543162145  0.2432435955725311  0.9296592571815943
  0.9760934347176941  0.6829507943385236  0.5408160479384340
  0.4850673818082070  0.6865842392022973  0.9252031112866660
  0.4267884650256351  0.1225567702094119  0.0986692033940261
  0.3541112632740597  0.4547150962617836  0.5681608294192130
 
  0.00000000E+00  0.00000000E+00  0.00000000E+00
  0.00000000E+00  0.00000000E+00  0.00000000E+00
  0.00000000E+00  0.00000000E+00  0.00000000E+00
  0.00000000E+00  0.00000000E+00  0.00000000E+00
  0.00000000E+00  0.00000000E+00  0.00000000E+00
  0.00000000E+00  0.00000000E+00  0.00000000E+00
  0.00000000E+00  0.00000000E+00  0.00000000E+00
  0.00000000E+00  0.00000000E+00  0.00000000E+00
