PREC=PREC
ISMEAR=1
SIGMA=0.1
NEW=41
IBRION=2
ISIF=3
ALGO = Normal
LREAL = A
NCORE = 1