ALGO=Normal
PREC=Accurate
ISYM=0
ISMEAR=0
NEW=50
ENCUT=420
EDIFF=1E-3
IBRION=2
LREAL=A