E = -1
1
  2.8155   0.0000   0.0000
  0.0000   2.8155   0.0000
  0.0000   0.0000   5.9886
Zn Ga N O
2 2 2 2
Direct
  0.2000   0.2000   0.8000
  0.8000   0.8000   0.2000
  0.2000   0.2000   0.4000
  0.8000   0.8000   0.6000
  0.2000   0.8000   0.0000
  0.8000   0.2000   0.0000
  0.2000   0.8000   0.5000
  0.8000   0.2000   0.5000