E = -1
1
  2.6266   0.0000   0.0000
 -1.3133   2.2747   0.0000
  0.0000   0.0000   7.9452
Zn Ga N O
2 2 2 2
Direct
  0.7000   0.3000   0.5000
  0.3000   0.7000   0.0000
  0.0000   0.0000   0.4000
  0.0000   0.0000   0.9000
  0.3000   0.7000   0.7000
  0.7000   0.3000   0.2000
  0.0000   0.0000   0.3000
  0.0000   0.0000   0.8000