E = -1
1
  2.8511   0.0000   0.0000
  0.0000   2.8511   0.0000
  0.0000   0.0000   5.8399
Zn Ga N O
2 2 2 2
Direct
  0.7000   0.7000   0.2000
  0.2000   0.2000   0.8000
  0.7000   0.7000   0.4000
  0.2000   0.2000   0.6000
  0.2000   0.2000   0.2000
  0.7000   0.7000   0.8000
  0.7000   0.2000   0.5000
  0.2000   0.7000   0.5000