E = -1
1
  3.3505   0.0000   0.0000
  0.0000   3.3505   0.0000
  0.0000   0.0000   7.1265
H
1000
Direct
  0.0000   0.0000   0.0000
  0.0000   0.0000   0.1000
  0.0000   0.0000   0.2000
  0.0000   0.0000   0.3000
  0.0000   0.0000   0.4000
  0.0000   0.0000   0.5000
  0.0000   0.0000   0.6000
  0.0000   0.0000   0.7000
  0.0000   0.0000   0.8000
  0.0000   0.0000   0.9000
  0.0000   0.1000   0.0000
  0.0000   0.1000   0.1000
  0.0000   0.1000   0.2000
  0.0000   0.1000   0.3000
  0.0000   0.1000   0.4000
  0.0000   0.1000   0.5000
  0.0000   0.1000   0.6000
  0.0000   0.1000   0.7000
  0.0000   0.1000   0.8000
  0.0000   0.1000   0.9000
  0.0000   0.2000   0.0000
  0.0000   0.2000   0.1000
  0.0000   0.2000   0.2000
  0.0000   0.2000   0.3000
  0.0000   0.2000   0.4000
  0.0000   0.2000   0.5000
  0.0000   0.2000   0.6000
  0.0000   0.2000   0.7000
  0.0000   0.2000   0.8000
  0.0000   0.2000   0.9000
  0.0000   0.3000   0.0000
  0.0000   0.3000   0.1000
  0.0000   0.3000   0.2000
  0.0000   0.3000   0.3000
  0.0000   0.3000   0.4000
  0.0000   0.3000   0.5000
  0.0000   0.3000   0.6000
  0.0000   0.3000   0.7000
  0.0000   0.3000   0.8000
  0.0000   0.3000   0.9000
  0.0000   0.4000   0.0000
  0.0000   0.4000   0.1000
  0.0000   0.4000   0.2000
  0.0000   0.4000   0.3000
  0.0000   0.4000   0.4000
  0.0000   0.4000   0.5000
  0.0000   0.4000   0.6000
  0.0000   0.4000   0.7000
  0.0000   0.4000   0.8000
  0.0000   0.4000   0.9000
  0.0000   0.5000   0.0000
  0.0000   0.5000   0.1000
  0.0000   0.5000   0.2000
  0.0000   0.5000   0.3000
  0.0000   0.5000   0.4000
  0.0000   0.5000   0.5000
  0.0000   0.5000   0.6000
  0.0000   0.5000   0.7000
  0.0000   0.5000   0.8000
  0.0000   0.5000   0.9000
  0.0000   0.6000   0.0000
  0.0000   0.6000   0.1000
  0.0000   0.6000   0.2000
  0.0000   0.6000   0.3000
  0.0000   0.6000   0.4000
  0.0000   0.6000   0.5000
  0.0000   0.6000   0.6000
  0.0000   0.6000   0.7000
  0.0000   0.6000   0.8000
  0.0000   0.6000   0.9000
  0.0000   0.7000   0.0000
  0.0000   0.7000   0.1000
  0.0000   0.7000   0.2000
  0.0000   0.7000   0.3000
  0.0000   0.7000   0.4000
  0.0000   0.7000   0.5000
  0.0000   0.7000   0.6000
  0.0000   0.7000   0.7000
  0.0000   0.7000   0.8000
  0.0000   0.7000   0.9000
  0.0000   0.8000   0.0000
  0.0000   0.8000   0.1000
  0.0000   0.8000   0.2000
  0.0000   0.8000   0.3000
  0.0000   0.8000   0.4000
  0.0000   0.8000   0.5000
  0.0000   0.8000   0.6000
  0.0000   0.8000   0.7000
  0.0000   0.8000   0.8000
  0.0000   0.8000   0.9000
  0.0000   0.9000   0.0000
  0.0000   0.9000   0.1000
  0.0000   0.9000   0.2000
  0.0000   0.9000   0.3000
  0.0000   0.9000   0.4000
  0.0000   0.9000   0.5000
  0.0000   0.9000   0.6000
  0.0000   0.9000   0.7000
  0.0000   0.9000   0.8000
  0.0000   0.9000   0.9000
  0.1000   0.0000   0.0000
  0.1000   0.0000   0.1000
  0.1000   0.0000   0.2000
  0.1000   0.0000   0.3000
  0.1000   0.0000   0.4000
  0.1000   0.0000   0.5000
  0.1000   0.0000   0.6000
  0.1000   0.0000   0.7000
  0.1000   0.0000   0.8000
  0.1000   0.0000   0.9000
  0.1000   0.1000   0.0000
  0.1000   0.1000   0.1000
  0.1000   0.1000   0.2000
  0.1000   0.1000   0.3000
  0.1000   0.1000   0.4000
  0.1000   0.1000   0.5000
  0.1000   0.1000   0.6000
  0.1000   0.1000   0.7000
  0.1000   0.1000   0.8000
  0.1000   0.1000   0.9000
  0.1000   0.2000   0.0000
  0.1000   0.2000   0.1000
  0.1000   0.2000   0.2000
  0.1000   0.2000   0.3000
  0.1000   0.2000   0.4000
  0.1000   0.2000   0.5000
  0.1000   0.2000   0.6000
  0.1000   0.2000   0.7000
  0.1000   0.2000   0.8000
  0.1000   0.2000   0.9000
  0.1000   0.3000   0.0000
  0.1000   0.3000   0.1000
  0.1000   0.3000   0.2000
  0.1000   0.3000   0.3000
  0.1000   0.3000   0.4000
  0.1000   0.3000   0.5000
  0.1000   0.3000   0.6000
  0.1000   0.3000   0.7000
  0.1000   0.3000   0.8000
  0.1000   0.3000   0.9000
  0.1000   0.4000   0.0000
  0.1000   0.4000   0.1000
  0.1000   0.4000   0.2000
  0.1000   0.4000   0.3000
  0.1000   0.4000   0.4000
  0.1000   0.4000   0.5000
  0.1000   0.4000   0.6000
  0.1000   0.4000   0.7000
  0.1000   0.4000   0.8000
  0.1000   0.4000   0.9000
  0.1000   0.5000   0.0000
  0.1000   0.5000   0.1000
  0.1000   0.5000   0.2000
  0.1000   0.5000   0.3000
  0.1000   0.5000   0.4000
  0.1000   0.5000   0.5000
  0.1000   0.5000   0.6000
  0.1000   0.5000   0.7000
  0.1000   0.5000   0.8000
  0.1000   0.5000   0.9000
  0.1000   0.6000   0.0000
  0.1000   0.6000   0.1000
  0.1000   0.6000   0.2000
  0.1000   0.6000   0.3000
  0.1000   0.6000   0.4000
  0.1000   0.6000   0.5000
  0.1000   0.6000   0.6000
  0.1000   0.6000   0.7000
  0.1000   0.6000   0.8000
  0.1000   0.6000   0.9000
  0.1000   0.7000   0.0000
  0.1000   0.7000   0.1000
  0.1000   0.7000   0.2000
  0.1000   0.7000   0.3000
  0.1000   0.7000   0.4000
  0.1000   0.7000   0.5000
  0.1000   0.7000   0.6000
  0.1000   0.7000   0.7000
  0.1000   0.7000   0.8000
  0.1000   0.7000   0.9000
  0.1000   0.8000   0.0000
  0.1000   0.8000   0.1000
  0.1000   0.8000   0.2000
  0.1000   0.8000   0.3000
  0.1000   0.8000   0.4000
  0.1000   0.8000   0.5000
  0.1000   0.8000   0.6000
  0.1000   0.8000   0.7000
  0.1000   0.8000   0.8000
  0.1000   0.8000   0.9000
  0.1000   0.9000   0.0000
  0.1000   0.9000   0.1000
  0.1000   0.9000   0.2000
  0.1000   0.9000   0.3000
  0.1000   0.9000   0.4000
  0.1000   0.9000   0.5000
  0.1000   0.9000   0.6000
  0.1000   0.9000   0.7000
  0.1000   0.9000   0.8000
  0.1000   0.9000   0.9000
  0.2000   0.0000   0.0000
  0.2000   0.0000   0.1000
  0.2000   0.0000   0.2000
  0.2000   0.0000   0.3000
  0.2000   0.0000   0.4000
  0.2000   0.0000   0.5000
  0.2000   0.0000   0.6000
  0.2000   0.0000   0.7000
  0.2000   0.0000   0.8000
  0.2000   0.0000   0.9000
  0.2000   0.1000   0.0000
  0.2000   0.1000   0.1000
  0.2000   0.1000   0.2000
  0.2000   0.1000   0.3000
  0.2000   0.1000   0.4000
  0.2000   0.1000   0.5000
  0.2000   0.1000   0.6000
  0.2000   0.1000   0.7000
  0.2000   0.1000   0.8000
  0.2000   0.1000   0.9000
  0.2000   0.2000   0.0000
  0.2000   0.2000   0.1000
  0.2000   0.2000   0.2000
  0.2000   0.2000   0.3000
  0.2000   0.2000   0.4000
  0.2000   0.2000   0.5000
  0.2000   0.2000   0.6000
  0.2000   0.2000   0.7000
  0.2000   0.2000   0.8000
  0.2000   0.2000   0.9000
  0.2000   0.3000   0.0000
  0.2000   0.3000   0.1000
  0.2000   0.3000   0.2000
  0.2000   0.3000   0.3000
  0.2000   0.3000   0.4000
  0.2000   0.3000   0.5000
  0.2000   0.3000   0.6000
  0.2000   0.3000   0.7000
  0.2000   0.3000   0.8000
  0.2000   0.3000   0.9000
  0.2000   0.4000   0.0000
  0.2000   0.4000   0.1000
  0.2000   0.4000   0.2000
  0.2000   0.4000   0.3000
  0.2000   0.4000   0.4000
  0.2000   0.4000   0.5000
  0.2000   0.4000   0.6000
  0.2000   0.4000   0.7000
  0.2000   0.4000   0.8000
  0.2000   0.4000   0.9000
  0.2000   0.5000   0.0000
  0.2000   0.5000   0.1000
  0.2000   0.5000   0.2000
  0.2000   0.5000   0.3000
  0.2000   0.5000   0.4000
  0.2000   0.5000   0.5000
  0.2000   0.5000   0.6000
  0.2000   0.5000   0.7000
  0.2000   0.5000   0.8000
  0.2000   0.5000   0.9000
  0.2000   0.6000   0.0000
  0.2000   0.6000   0.1000
  0.2000   0.6000   0.2000
  0.2000   0.6000   0.3000
  0.2000   0.6000   0.4000
  0.2000   0.6000   0.5000
  0.2000   0.6000   0.6000
  0.2000   0.6000   0.7000
  0.2000   0.6000   0.8000
  0.2000   0.6000   0.9000
  0.2000   0.7000   0.0000
  0.2000   0.7000   0.1000
  0.2000   0.7000   0.2000
  0.2000   0.7000   0.3000
  0.2000   0.7000   0.4000
  0.2000   0.7000   0.5000
  0.2000   0.7000   0.6000
  0.2000   0.7000   0.7000
  0.2000   0.7000   0.8000
  0.2000   0.7000   0.9000
  0.2000   0.8000   0.0000
  0.2000   0.8000   0.1000
  0.2000   0.8000   0.2000
  0.2000   0.8000   0.3000
  0.2000   0.8000   0.4000
  0.2000   0.8000   0.5000
  0.2000   0.8000   0.6000
  0.2000   0.8000   0.7000
  0.2000   0.8000   0.8000
  0.2000   0.8000   0.9000
  0.2000   0.9000   0.0000
  0.2000   0.9000   0.1000
  0.2000   0.9000   0.2000
  0.2000   0.9000   0.3000
  0.2000   0.9000   0.4000
  0.2000   0.9000   0.5000
  0.2000   0.9000   0.6000
  0.2000   0.9000   0.7000
  0.2000   0.9000   0.8000
  0.2000   0.9000   0.9000
  0.3000   0.0000   0.0000
  0.3000   0.0000   0.1000
  0.3000   0.0000   0.2000
  0.3000   0.0000   0.3000
  0.3000   0.0000   0.4000
  0.3000   0.0000   0.5000
  0.3000   0.0000   0.6000
  0.3000   0.0000   0.7000
  0.3000   0.0000   0.8000
  0.3000   0.0000   0.9000
  0.3000   0.1000   0.0000
  0.3000   0.1000   0.1000
  0.3000   0.1000   0.2000
  0.3000   0.1000   0.3000
  0.3000   0.1000   0.4000
  0.3000   0.1000   0.5000
  0.3000   0.1000   0.6000
  0.3000   0.1000   0.7000
  0.3000   0.1000   0.8000
  0.3000   0.1000   0.9000
  0.3000   0.2000   0.0000
  0.3000   0.2000   0.1000
  0.3000   0.2000   0.2000
  0.3000   0.2000   0.3000
  0.3000   0.2000   0.4000
  0.3000   0.2000   0.5000
  0.3000   0.2000   0.6000
  0.3000   0.2000   0.7000
  0.3000   0.2000   0.8000
  0.3000   0.2000   0.9000
  0.3000   0.3000   0.0000
  0.3000   0.3000   0.1000
  0.3000   0.3000   0.2000
  0.3000   0.3000   0.3000
  0.3000   0.3000   0.4000
  0.3000   0.3000   0.5000
  0.3000   0.3000   0.6000
  0.3000   0.3000   0.7000
  0.3000   0.3000   0.8000
  0.3000   0.3000   0.9000
  0.3000   0.4000   0.0000
  0.3000   0.4000   0.1000
  0.3000   0.4000   0.2000
  0.3000   0.4000   0.3000
  0.3000   0.4000   0.4000
  0.3000   0.4000   0.5000
  0.3000   0.4000   0.6000
  0.3000   0.4000   0.7000
  0.3000   0.4000   0.8000
  0.3000   0.4000   0.9000
  0.3000   0.5000   0.0000
  0.3000   0.5000   0.1000
  0.3000   0.5000   0.2000
  0.3000   0.5000   0.3000
  0.3000   0.5000   0.4000
  0.3000   0.5000   0.5000
  0.3000   0.5000   0.6000
  0.3000   0.5000   0.7000
  0.3000   0.5000   0.8000
  0.3000   0.5000   0.9000
  0.3000   0.6000   0.0000
  0.3000   0.6000   0.1000
  0.3000   0.6000   0.2000
  0.3000   0.6000   0.3000
  0.3000   0.6000   0.4000
  0.3000   0.6000   0.5000
  0.3000   0.6000   0.6000
  0.3000   0.6000   0.7000
  0.3000   0.6000   0.8000
  0.3000   0.6000   0.9000
  0.3000   0.7000   0.0000
  0.3000   0.7000   0.1000
  0.3000   0.7000   0.2000
  0.3000   0.7000   0.3000
  0.3000   0.7000   0.4000
  0.3000   0.7000   0.5000
  0.3000   0.7000   0.6000
  0.3000   0.7000   0.7000
  0.3000   0.7000   0.8000
  0.3000   0.7000   0.9000
  0.3000   0.8000   0.0000
  0.3000   0.8000   0.1000
  0.3000   0.8000   0.2000
  0.3000   0.8000   0.3000
  0.3000   0.8000   0.4000
  0.3000   0.8000   0.5000
  0.3000   0.8000   0.6000
  0.3000   0.8000   0.7000
  0.3000   0.8000   0.8000
  0.3000   0.8000   0.9000
  0.3000   0.9000   0.0000
  0.3000   0.9000   0.1000
  0.3000   0.9000   0.2000
  0.3000   0.9000   0.3000
  0.3000   0.9000   0.4000
  0.3000   0.9000   0.5000
  0.3000   0.9000   0.6000
  0.3000   0.9000   0.7000
  0.3000   0.9000   0.8000
  0.3000   0.9000   0.9000
  0.4000   0.0000   0.0000
  0.4000   0.0000   0.1000
  0.4000   0.0000   0.2000
  0.4000   0.0000   0.3000
  0.4000   0.0000   0.4000
  0.4000   0.0000   0.5000
  0.4000   0.0000   0.6000
  0.4000   0.0000   0.7000
  0.4000   0.0000   0.8000
  0.4000   0.0000   0.9000
  0.4000   0.1000   0.0000
  0.4000   0.1000   0.1000
  0.4000   0.1000   0.2000
  0.4000   0.1000   0.3000
  0.4000   0.1000   0.4000
  0.4000   0.1000   0.5000
  0.4000   0.1000   0.6000
  0.4000   0.1000   0.7000
  0.4000   0.1000   0.8000
  0.4000   0.1000   0.9000
  0.4000   0.2000   0.0000
  0.4000   0.2000   0.1000
  0.4000   0.2000   0.2000
  0.4000   0.2000   0.3000
  0.4000   0.2000   0.4000
  0.4000   0.2000   0.5000
  0.4000   0.2000   0.6000
  0.4000   0.2000   0.7000
  0.4000   0.2000   0.8000
  0.4000   0.2000   0.9000
  0.4000   0.3000   0.0000
  0.4000   0.3000   0.1000
  0.4000   0.3000   0.2000
  0.4000   0.3000   0.3000
  0.4000   0.3000   0.4000
  0.4000   0.3000   0.5000
  0.4000   0.3000   0.6000
  0.4000   0.3000   0.7000
  0.4000   0.3000   0.8000
  0.4000   0.3000   0.9000
  0.4000   0.4000   0.0000
  0.4000   0.4000   0.1000
  0.4000   0.4000   0.2000
  0.4000   0.4000   0.3000
  0.4000   0.4000   0.4000
  0.4000   0.4000   0.5000
  0.4000   0.4000   0.6000
  0.4000   0.4000   0.7000
  0.4000   0.4000   0.8000
  0.4000   0.4000   0.9000
  0.4000   0.5000   0.0000
  0.4000   0.5000   0.1000
  0.4000   0.5000   0.2000
  0.4000   0.5000   0.3000
  0.4000   0.5000   0.4000
  0.4000   0.5000   0.5000
  0.4000   0.5000   0.6000
  0.4000   0.5000   0.7000
  0.4000   0.5000   0.8000
  0.4000   0.5000   0.9000
  0.4000   0.6000   0.0000
  0.4000   0.6000   0.1000
  0.4000   0.6000   0.2000
  0.4000   0.6000   0.3000
  0.4000   0.6000   0.4000
  0.4000   0.6000   0.5000
  0.4000   0.6000   0.6000
  0.4000   0.6000   0.7000
  0.4000   0.6000   0.8000
  0.4000   0.6000   0.9000
  0.4000   0.7000   0.0000
  0.4000   0.7000   0.1000
  0.4000   0.7000   0.2000
  0.4000   0.7000   0.3000
  0.4000   0.7000   0.4000
  0.4000   0.7000   0.5000
  0.4000   0.7000   0.6000
  0.4000   0.7000   0.7000
  0.4000   0.7000   0.8000
  0.4000   0.7000   0.9000
  0.4000   0.8000   0.0000
  0.4000   0.8000   0.1000
  0.4000   0.8000   0.2000
  0.4000   0.8000   0.3000
  0.4000   0.8000   0.4000
  0.4000   0.8000   0.5000
  0.4000   0.8000   0.6000
  0.4000   0.8000   0.7000
  0.4000   0.8000   0.8000
  0.4000   0.8000   0.9000
  0.4000   0.9000   0.0000
  0.4000   0.9000   0.1000
  0.4000   0.9000   0.2000
  0.4000   0.9000   0.3000
  0.4000   0.9000   0.4000
  0.4000   0.9000   0.5000
  0.4000   0.9000   0.6000
  0.4000   0.9000   0.7000
  0.4000   0.9000   0.8000
  0.4000   0.9000   0.9000
  0.5000   0.0000   0.0000
  0.5000   0.0000   0.1000
  0.5000   0.0000   0.2000
  0.5000   0.0000   0.3000
  0.5000   0.0000   0.4000
  0.5000   0.0000   0.5000
  0.5000   0.0000   0.6000
  0.5000   0.0000   0.7000
  0.5000   0.0000   0.8000
  0.5000   0.0000   0.9000
  0.5000   0.1000   0.0000
  0.5000   0.1000   0.1000
  0.5000   0.1000   0.2000
  0.5000   0.1000   0.3000
  0.5000   0.1000   0.4000
  0.5000   0.1000   0.5000
  0.5000   0.1000   0.6000
  0.5000   0.1000   0.7000
  0.5000   0.1000   0.8000
  0.5000   0.1000   0.9000
  0.5000   0.2000   0.0000
  0.5000   0.2000   0.1000
  0.5000   0.2000   0.2000
  0.5000   0.2000   0.3000
  0.5000   0.2000   0.4000
  0.5000   0.2000   0.5000
  0.5000   0.2000   0.6000
  0.5000   0.2000   0.7000
  0.5000   0.2000   0.8000
  0.5000   0.2000   0.9000
  0.5000   0.3000   0.0000
  0.5000   0.3000   0.1000
  0.5000   0.3000   0.2000
  0.5000   0.3000   0.3000
  0.5000   0.3000   0.4000
  0.5000   0.3000   0.5000
  0.5000   0.3000   0.6000
  0.5000   0.3000   0.7000
  0.5000   0.3000   0.8000
  0.5000   0.3000   0.9000
  0.5000   0.4000   0.0000
  0.5000   0.4000   0.1000
  0.5000   0.4000   0.2000
  0.5000   0.4000   0.3000
  0.5000   0.4000   0.4000
  0.5000   0.4000   0.5000
  0.5000   0.4000   0.6000
  0.5000   0.4000   0.7000
  0.5000   0.4000   0.8000
  0.5000   0.4000   0.9000
  0.5000   0.5000   0.0000
  0.5000   0.5000   0.1000
  0.5000   0.5000   0.2000
  0.5000   0.5000   0.3000
  0.5000   0.5000   0.4000
  0.5000   0.5000   0.5000
  0.5000   0.5000   0.6000
  0.5000   0.5000   0.7000
  0.5000   0.5000   0.8000
  0.5000   0.5000   0.9000
  0.5000   0.6000   0.0000
  0.5000   0.6000   0.1000
  0.5000   0.6000   0.2000
  0.5000   0.6000   0.3000
  0.5000   0.6000   0.4000
  0.5000   0.6000   0.5000
  0.5000   0.6000   0.6000
  0.5000   0.6000   0.7000
  0.5000   0.6000   0.8000
  0.5000   0.6000   0.9000
  0.5000   0.7000   0.0000
  0.5000   0.7000   0.1000
  0.5000   0.7000   0.2000
  0.5000   0.7000   0.3000
  0.5000   0.7000   0.4000
  0.5000   0.7000   0.5000
  0.5000   0.7000   0.6000
  0.5000   0.7000   0.7000
  0.5000   0.7000   0.8000
  0.5000   0.7000   0.9000
  0.5000   0.8000   0.0000
  0.5000   0.8000   0.1000
  0.5000   0.8000   0.2000
  0.5000   0.8000   0.3000
  0.5000   0.8000   0.4000
  0.5000   0.8000   0.5000
  0.5000   0.8000   0.6000
  0.5000   0.8000   0.7000
  0.5000   0.8000   0.8000
  0.5000   0.8000   0.9000
  0.5000   0.9000   0.0000
  0.5000   0.9000   0.1000
  0.5000   0.9000   0.2000
  0.5000   0.9000   0.3000
  0.5000   0.9000   0.4000
  0.5000   0.9000   0.5000
  0.5000   0.9000   0.6000
  0.5000   0.9000   0.7000
  0.5000   0.9000   0.8000
  0.5000   0.9000   0.9000
  0.6000   0.0000   0.0000
  0.6000   0.0000   0.1000
  0.6000   0.0000   0.2000
  0.6000   0.0000   0.3000
  0.6000   0.0000   0.4000
  0.6000   0.0000   0.5000
  0.6000   0.0000   0.6000
  0.6000   0.0000   0.7000
  0.6000   0.0000   0.8000
  0.6000   0.0000   0.9000
  0.6000   0.1000   0.0000
  0.6000   0.1000   0.1000
  0.6000   0.1000   0.2000
  0.6000   0.1000   0.3000
  0.6000   0.1000   0.4000
  0.6000   0.1000   0.5000
  0.6000   0.1000   0.6000
  0.6000   0.1000   0.7000
  0.6000   0.1000   0.8000
  0.6000   0.1000   0.9000
  0.6000   0.2000   0.0000
  0.6000   0.2000   0.1000
  0.6000   0.2000   0.2000
  0.6000   0.2000   0.3000
  0.6000   0.2000   0.4000
  0.6000   0.2000   0.5000
  0.6000   0.2000   0.6000
  0.6000   0.2000   0.7000
  0.6000   0.2000   0.8000
  0.6000   0.2000   0.9000
  0.6000   0.3000   0.0000
  0.6000   0.3000   0.1000
  0.6000   0.3000   0.2000
  0.6000   0.3000   0.3000
  0.6000   0.3000   0.4000
  0.6000   0.3000   0.5000
  0.6000   0.3000   0.6000
  0.6000   0.3000   0.7000
  0.6000   0.3000   0.8000
  0.6000   0.3000   0.9000
  0.6000   0.4000   0.0000
  0.6000   0.4000   0.1000
  0.6000   0.4000   0.2000
  0.6000   0.4000   0.3000
  0.6000   0.4000   0.4000
  0.6000   0.4000   0.5000
  0.6000   0.4000   0.6000
  0.6000   0.4000   0.7000
  0.6000   0.4000   0.8000
  0.6000   0.4000   0.9000
  0.6000   0.5000   0.0000
  0.6000   0.5000   0.1000
  0.6000   0.5000   0.2000
  0.6000   0.5000   0.3000
  0.6000   0.5000   0.4000
  0.6000   0.5000   0.5000
  0.6000   0.5000   0.6000
  0.6000   0.5000   0.7000
  0.6000   0.5000   0.8000
  0.6000   0.5000   0.9000
  0.6000   0.6000   0.0000
  0.6000   0.6000   0.1000
  0.6000   0.6000   0.2000
  0.6000   0.6000   0.3000
  0.6000   0.6000   0.4000
  0.6000   0.6000   0.5000
  0.6000   0.6000   0.6000
  0.6000   0.6000   0.7000
  0.6000   0.6000   0.8000
  0.6000   0.6000   0.9000
  0.6000   0.7000   0.0000
  0.6000   0.7000   0.1000
  0.6000   0.7000   0.2000
  0.6000   0.7000   0.3000
  0.6000   0.7000   0.4000
  0.6000   0.7000   0.5000
  0.6000   0.7000   0.6000
  0.6000   0.7000   0.7000
  0.6000   0.7000   0.8000
  0.6000   0.7000   0.9000
  0.6000   0.8000   0.0000
  0.6000   0.8000   0.1000
  0.6000   0.8000   0.2000
  0.6000   0.8000   0.3000
  0.6000   0.8000   0.4000
  0.6000   0.8000   0.5000
  0.6000   0.8000   0.6000
  0.6000   0.8000   0.7000
  0.6000   0.8000   0.8000
  0.6000   0.8000   0.9000
  0.6000   0.9000   0.0000
  0.6000   0.9000   0.1000
  0.6000   0.9000   0.2000
  0.6000   0.9000   0.3000
  0.6000   0.9000   0.4000
  0.6000   0.9000   0.5000
  0.6000   0.9000   0.6000
  0.6000   0.9000   0.7000
  0.6000   0.9000   0.8000
  0.6000   0.9000   0.9000
  0.7000   0.0000   0.0000
  0.7000   0.0000   0.1000
  0.7000   0.0000   0.2000
  0.7000   0.0000   0.3000
  0.7000   0.0000   0.4000
  0.7000   0.0000   0.5000
  0.7000   0.0000   0.6000
  0.7000   0.0000   0.7000
  0.7000   0.0000   0.8000
  0.7000   0.0000   0.9000
  0.7000   0.1000   0.0000
  0.7000   0.1000   0.1000
  0.7000   0.1000   0.2000
  0.7000   0.1000   0.3000
  0.7000   0.1000   0.4000
  0.7000   0.1000   0.5000
  0.7000   0.1000   0.6000
  0.7000   0.1000   0.7000
  0.7000   0.1000   0.8000
  0.7000   0.1000   0.9000
  0.7000   0.2000   0.0000
  0.7000   0.2000   0.1000
  0.7000   0.2000   0.2000
  0.7000   0.2000   0.3000
  0.7000   0.2000   0.4000
  0.7000   0.2000   0.5000
  0.7000   0.2000   0.6000
  0.7000   0.2000   0.7000
  0.7000   0.2000   0.8000
  0.7000   0.2000   0.9000
  0.7000   0.3000   0.0000
  0.7000   0.3000   0.1000
  0.7000   0.3000   0.2000
  0.7000   0.3000   0.3000
  0.7000   0.3000   0.4000
  0.7000   0.3000   0.5000
  0.7000   0.3000   0.6000
  0.7000   0.3000   0.7000
  0.7000   0.3000   0.8000
  0.7000   0.3000   0.9000
  0.7000   0.4000   0.0000
  0.7000   0.4000   0.1000
  0.7000   0.4000   0.2000
  0.7000   0.4000   0.3000
  0.7000   0.4000   0.4000
  0.7000   0.4000   0.5000
  0.7000   0.4000   0.6000
  0.7000   0.4000   0.7000
  0.7000   0.4000   0.8000
  0.7000   0.4000   0.9000
  0.7000   0.5000   0.0000
  0.7000   0.5000   0.1000
  0.7000   0.5000   0.2000
  0.7000   0.5000   0.3000
  0.7000   0.5000   0.4000
  0.7000   0.5000   0.5000
  0.7000   0.5000   0.6000
  0.7000   0.5000   0.7000
  0.7000   0.5000   0.8000
  0.7000   0.5000   0.9000
  0.7000   0.6000   0.0000
  0.7000   0.6000   0.1000
  0.7000   0.6000   0.2000
  0.7000   0.6000   0.3000
  0.7000   0.6000   0.4000
  0.7000   0.6000   0.5000
  0.7000   0.6000   0.6000
  0.7000   0.6000   0.7000
  0.7000   0.6000   0.8000
  0.7000   0.6000   0.9000
  0.7000   0.7000   0.0000
  0.7000   0.7000   0.1000
  0.7000   0.7000   0.2000
  0.7000   0.7000   0.3000
  0.7000   0.7000   0.4000
  0.7000   0.7000   0.5000
  0.7000   0.7000   0.6000
  0.7000   0.7000   0.7000
  0.7000   0.7000   0.8000
  0.7000   0.7000   0.9000
  0.7000   0.8000   0.0000
  0.7000   0.8000   0.1000
  0.7000   0.8000   0.2000
  0.7000   0.8000   0.3000
  0.7000   0.8000   0.4000
  0.7000   0.8000   0.5000
  0.7000   0.8000   0.6000
  0.7000   0.8000   0.7000
  0.7000   0.8000   0.8000
  0.7000   0.8000   0.9000
  0.7000   0.9000   0.0000
  0.7000   0.9000   0.1000
  0.7000   0.9000   0.2000
  0.7000   0.9000   0.3000
  0.7000   0.9000   0.4000
  0.7000   0.9000   0.5000
  0.7000   0.9000   0.6000
  0.7000   0.9000   0.7000
  0.7000   0.9000   0.8000
  0.7000   0.9000   0.9000
  0.8000   0.0000   0.0000
  0.8000   0.0000   0.1000
  0.8000   0.0000   0.2000
  0.8000   0.0000   0.3000
  0.8000   0.0000   0.4000
  0.8000   0.0000   0.5000
  0.8000   0.0000   0.6000
  0.8000   0.0000   0.7000
  0.8000   0.0000   0.8000
  0.8000   0.0000   0.9000
  0.8000   0.1000   0.0000
  0.8000   0.1000   0.1000
  0.8000   0.1000   0.2000
  0.8000   0.1000   0.3000
  0.8000   0.1000   0.4000
  0.8000   0.1000   0.5000
  0.8000   0.1000   0.6000
  0.8000   0.1000   0.7000
  0.8000   0.1000   0.8000
  0.8000   0.1000   0.9000
  0.8000   0.2000   0.0000
  0.8000   0.2000   0.1000
  0.8000   0.2000   0.2000
  0.8000   0.2000   0.3000
  0.8000   0.2000   0.4000
  0.8000   0.2000   0.5000
  0.8000   0.2000   0.6000
  0.8000   0.2000   0.7000
  0.8000   0.2000   0.8000
  0.8000   0.2000   0.9000
  0.8000   0.3000   0.0000
  0.8000   0.3000   0.1000
  0.8000   0.3000   0.2000
  0.8000   0.3000   0.3000
  0.8000   0.3000   0.4000
  0.8000   0.3000   0.5000
  0.8000   0.3000   0.6000
  0.8000   0.3000   0.7000
  0.8000   0.3000   0.8000
  0.8000   0.3000   0.9000
  0.8000   0.4000   0.0000
  0.8000   0.4000   0.1000
  0.8000   0.4000   0.2000
  0.8000   0.4000   0.3000
  0.8000   0.4000   0.4000
  0.8000   0.4000   0.5000
  0.8000   0.4000   0.6000
  0.8000   0.4000   0.7000
  0.8000   0.4000   0.8000
  0.8000   0.4000   0.9000
  0.8000   0.5000   0.0000
  0.8000   0.5000   0.1000
  0.8000   0.5000   0.2000
  0.8000   0.5000   0.3000
  0.8000   0.5000   0.4000
  0.8000   0.5000   0.5000
  0.8000   0.5000   0.6000
  0.8000   0.5000   0.7000
  0.8000   0.5000   0.8000
  0.8000   0.5000   0.9000
  0.8000   0.6000   0.0000
  0.8000   0.6000   0.1000
  0.8000   0.6000   0.2000
  0.8000   0.6000   0.3000
  0.8000   0.6000   0.4000
  0.8000   0.6000   0.5000
  0.8000   0.6000   0.6000
  0.8000   0.6000   0.7000
  0.8000   0.6000   0.8000
  0.8000   0.6000   0.9000
  0.8000   0.7000   0.0000
  0.8000   0.7000   0.1000
  0.8000   0.7000   0.2000
  0.8000   0.7000   0.3000
  0.8000   0.7000   0.4000
  0.8000   0.7000   0.5000
  0.8000   0.7000   0.6000
  0.8000   0.7000   0.7000
  0.8000   0.7000   0.8000
  0.8000   0.7000   0.9000
  0.8000   0.8000   0.0000
  0.8000   0.8000   0.1000
  0.8000   0.8000   0.2000
  0.8000   0.8000   0.3000
  0.8000   0.8000   0.4000
  0.8000   0.8000   0.5000
  0.8000   0.8000   0.6000
  0.8000   0.8000   0.7000
  0.8000   0.8000   0.8000
  0.8000   0.8000   0.9000
  0.8000   0.9000   0.0000
  0.8000   0.9000   0.1000
  0.8000   0.9000   0.2000
  0.8000   0.9000   0.3000
  0.8000   0.9000   0.4000
  0.8000   0.9000   0.5000
  0.8000   0.9000   0.6000
  0.8000   0.9000   0.7000
  0.8000   0.9000   0.8000
  0.8000   0.9000   0.9000
  0.9000   0.0000   0.0000
  0.9000   0.0000   0.1000
  0.9000   0.0000   0.2000
  0.9000   0.0000   0.3000
  0.9000   0.0000   0.4000
  0.9000   0.0000   0.5000
  0.9000   0.0000   0.6000
  0.9000   0.0000   0.7000
  0.9000   0.0000   0.8000
  0.9000   0.0000   0.9000
  0.9000   0.1000   0.0000
  0.9000   0.1000   0.1000
  0.9000   0.1000   0.2000
  0.9000   0.1000   0.3000
  0.9000   0.1000   0.4000
  0.9000   0.1000   0.5000
  0.9000   0.1000   0.6000
  0.9000   0.1000   0.7000
  0.9000   0.1000   0.8000
  0.9000   0.1000   0.9000
  0.9000   0.2000   0.0000
  0.9000   0.2000   0.1000
  0.9000   0.2000   0.2000
  0.9000   0.2000   0.3000
  0.9000   0.2000   0.4000
  0.9000   0.2000   0.5000
  0.9000   0.2000   0.6000
  0.9000   0.2000   0.7000
  0.9000   0.2000   0.8000
  0.9000   0.2000   0.9000
  0.9000   0.3000   0.0000
  0.9000   0.3000   0.1000
  0.9000   0.3000   0.2000
  0.9000   0.3000   0.3000
  0.9000   0.3000   0.4000
  0.9000   0.3000   0.5000
  0.9000   0.3000   0.6000
  0.9000   0.3000   0.7000
  0.9000   0.3000   0.8000
  0.9000   0.3000   0.9000
  0.9000   0.4000   0.0000
  0.9000   0.4000   0.1000
  0.9000   0.4000   0.2000
  0.9000   0.4000   0.3000
  0.9000   0.4000   0.4000
  0.9000   0.4000   0.5000
  0.9000   0.4000   0.6000
  0.9000   0.4000   0.7000
  0.9000   0.4000   0.8000
  0.9000   0.4000   0.9000
  0.9000   0.5000   0.0000
  0.9000   0.5000   0.1000
  0.9000   0.5000   0.2000
  0.9000   0.5000   0.3000
  0.9000   0.5000   0.4000
  0.9000   0.5000   0.5000
  0.9000   0.5000   0.6000
  0.9000   0.5000   0.7000
  0.9000   0.5000   0.8000
  0.9000   0.5000   0.9000
  0.9000   0.6000   0.0000
  0.9000   0.6000   0.1000
  0.9000   0.6000   0.2000
  0.9000   0.6000   0.3000
  0.9000   0.6000   0.4000
  0.9000   0.6000   0.5000
  0.9000   0.6000   0.6000
  0.9000   0.6000   0.7000
  0.9000   0.6000   0.8000
  0.9000   0.6000   0.9000
  0.9000   0.7000   0.0000
  0.9000   0.7000   0.1000
  0.9000   0.7000   0.2000
  0.9000   0.7000   0.3000
  0.9000   0.7000   0.4000
  0.9000   0.7000   0.5000
  0.9000   0.7000   0.6000
  0.9000   0.7000   0.7000
  0.9000   0.7000   0.8000
  0.9000   0.7000   0.9000
  0.9000   0.8000   0.0000
  0.9000   0.8000   0.1000
  0.9000   0.8000   0.2000
  0.9000   0.8000   0.3000
  0.9000   0.8000   0.4000
  0.9000   0.8000   0.5000
  0.9000   0.8000   0.6000
  0.9000   0.8000   0.7000
  0.9000   0.8000   0.8000
  0.9000   0.8000   0.9000
  0.9000   0.9000   0.0000
  0.9000   0.9000   0.1000
  0.9000   0.9000   0.2000
  0.9000   0.9000   0.3000
  0.9000   0.9000   0.4000
  0.9000   0.9000   0.5000
  0.9000   0.9000   0.6000
  0.9000   0.9000   0.7000
  0.9000   0.9000   0.8000
  0.9000   0.9000   0.9000