E = -1
1
  4.1701   0.0000   0.0000
  0.0000   4.5574   0.0000
  0.0000   0.0000   4.9957
Zn Ga N O
4 4 4 4
Direct
  0.9000   0.2000   0.4000
  0.6000   0.8000   0.9000
  0.4000   0.3000   0.6000
  0.1000   0.7000   0.1000
  0.9000   0.4000   0.6000
  0.5000   0.6000   0.1000
  0.5000   0.1000   0.4000
  0.0000   0.9000   0.9000
  0.9000   0.4000   0.2000
  0.5000   0.6000   0.7000
  0.5000   0.1000   0.8000
  0.0000   0.9000   0.3000
  0.3000   0.2000   0.0000
  0.2000   0.8000   0.5000
  0.8000   0.3000   0.9000
  0.7000   0.7000   0.5000