E = -1
1
  2.8065   0.0000   0.0000
  0.0000   2.8065   0.0000
  0.0000   0.0000   6.0272
Zn Ga N O
2 2 2 2
Direct
  0.2000   0.2000   0.6000
  0.8000   0.8000   0.4000
  0.2000   0.2000   0.1000
  0.8000   0.8000   0.9000
  0.8000   0.2000   0.5000
  0.2000   0.8000   0.5000
  0.8000   0.2000   0.0000
  0.2000   0.8000   0.0000