E = -1
1
  6.2789   0.0000   0.0000
  0.0000   2.6541   0.0000
  0.0000   0.0000   5.6972
Zn Ga N O
4 4 4 4
Direct
  0.0000   0.5000   0.8000
  0.5000   0.5000   0.8000
  0.5000   0.5000   0.2000
  0.9000   0.5000   0.2000
  0.2000   0.0000   0.5000
  0.8000   0.0000   0.5000
  0.2000   0.0000   0.0000
  0.8000   0.0000   0.9000
  0.1000   0.0000   0.2000
  0.4000   0.0000   0.2000
  0.6000   0.0000   0.8000
  0.9000   0.0000   0.8000
  0.2000   0.5000   0.8000
  0.8000   0.5000   0.2000
  0.0000   0.5000   0.5000
  0.5000   0.5000   0.5000