E = -1
1
  6.3446   0.0000   0.0000
  0.0000   5.6827   0.0000
  0.0000   0.0000   2.6333
Zn Ga N O
4 4 4 4
Direct
  0.2000   0.0000   0.0000
  0.8000   0.9000   0.0000
  0.2000   0.5000   0.0000
  0.8000   0.5000   0.0000
  0.2000   0.7000   0.5000
  0.8000   0.3000   0.5000
  0.5000   0.5000   0.5000
  0.0000   0.5000   0.5000
  0.0000   0.7000   0.5000
  0.5000   0.7000   0.5000
  0.5000   0.3000   0.5000
  0.9000   0.3000   0.5000
  0.1000   0.3000   0.0000
  0.4000   0.3000   0.0000
  0.6000   0.7000   0.0000
  0.9000   0.7000   0.0000