E = -1
1
  3.4823   0.0000   0.0000
  0.0000   4.8286   0.0000
  0.0000   0.0000   5.6466
Zn Ga N O
4 4 4 4
Direct
  0.2000   0.7000   0.6000
  0.2000   0.8000   0.1000
  0.7000   0.3000   0.4000
  0.7000   0.2000   0.9000
  0.2000   0.0000   0.4000
  0.2000   0.5000   0.9000
  0.7000   0.9000   0.6000
  0.7000   0.5000   0.1000
  0.2000   0.4000   0.2000
  0.2000   0.1000   0.7000
  0.7000   0.6000   0.8000
  0.7000   0.9000   0.3000
  0.2000   0.6000   0.4000
  0.2000   0.9000   0.9000
  0.7000   0.4000   0.6000
  0.7000   0.1000   0.1000