E = -1
1
  4.5620   0.0000   0.0000
  0.0000   4.5620   0.0000
  0.0000   0.0000   4.5620
Zn Ga N O
4 4 4 4
Direct
  0.0000   0.0000   0.0000
  0.0000   0.5000   0.5000
  0.5000   0.0000   0.5000
  0.5000   0.5000   0.0000
  0.5000   0.5000   0.5000
  0.5000   0.0000   0.0000
  0.0000   0.5000   0.0000
  0.0000   0.0000   0.5000
  0.7000   0.7000   0.7000
  0.7000   0.2000   0.2000
  0.2000   0.2000   0.7000
  0.2000   0.7000   0.2000
  0.2000   0.2000   0.2000
  0.2000   0.7000   0.7000
  0.7000   0.7000   0.2000
  0.7000   0.2000   0.7000