E = -1
1
  2.9035   0.0000   0.0000
  0.0000   2.9035   0.0000
  0.0000   0.0000   5.6311
Zn Ga N O
2 2 2 2
Direct
  0.2000   0.2000   0.7000
  0.7000   0.7000   0.3000
  0.2000   0.2000   0.2000
  0.7000   0.7000   0.8000
  0.7000   0.2000   0.5000
  0.2000   0.7000   0.5000
  0.7000   0.2000   0.0000
  0.2000   0.7000   0.0000