E = -1
1
  2.6110   0.0000   0.0000
 -1.3055   2.2612   0.0000
  0.0000   0.0000  24.1215
Zn Ga N O
6 6 6 6
Direct
  0.0000   0.0000   0.2000
  0.7000   0.3000   0.5000
  0.3000   0.6000   0.9000
  0.0000   0.0000   0.8000
  0.7000   0.3000   0.1000
  0.3000   0.6000   0.5000
  0.0000   0.0000   0.0000
  0.7000   0.3000   0.3000
  0.3000   0.6000   0.7000
  0.0000   0.0000   0.5000
  0.7000   0.3000   0.8000
  0.3000   0.6000   0.2000
  0.0000   0.0000   0.7000
  0.7000   0.3000   0.1000
  0.3000   0.6000   0.4000
  0.0000   0.0000   0.3000
  0.7000   0.3000   0.6000
  0.3000   0.6000   0.9000
  0.0000   0.0000   0.6000
  0.6000   0.3000   0.9000
  0.3000   0.6000   0.3000
  0.0000   0.0000   0.4000
  0.7000   0.3000   0.7000
  0.3000   0.6000   0.0000