E = -1
1
  6.3237   0.0000   0.0000
  0.0000  11.4077   0.0000
  0.0000   0.0000   2.6322
Zn Ga N O
8 8 8 8
Direct
  0.9000   0.1000   0.0000
  0.1000   0.9000   0.0000
  0.4000   0.4000   0.0000
  0.6000   0.6000   0.0000
  0.6000   0.1000   0.0000
  0.4000   0.9000   0.0000
  0.1000   0.4000   0.0000
  0.9000   0.6000   0.0000
  0.5000   0.3000   0.5000
  0.5000   0.7000   0.5000
  0.9000   0.2000   0.5000
  0.0000   0.8000   0.5000
  0.3000   0.1000   0.5000
  0.7000   0.9000   0.5000
  0.8000   0.4000   0.5000
  0.2000   0.6000   0.5000
  0.3000   0.3000   0.0000
  0.7000   0.7000   0.0000
  0.8000   0.2000   0.0000
  0.2000   0.8000   0.0000
  0.3000   0.9000   0.0000
  0.7000   0.0000   0.0000
  0.8000   0.5000   0.0000
  0.2000   0.5000   0.0000
  0.0000   0.1000   0.5000
  0.9000   0.9000   0.5000
  0.5000   0.4000   0.5000
  0.5000   0.6000   0.5000
  0.5000   0.1000   0.5000
  0.5000   0.9000   0.5000
  0.9000   0.4000   0.5000
  0.0000   0.6000   0.5000