E = -1
1
  2.7998   0.0000   0.0000
  0.0000   2.7998   0.0000
  0.0000   0.0000   6.0561
Zn Ga N O
2 2 2 2
Direct
  0.2000   0.2000   0.7000
  0.8000   0.8000   0.3000
  0.2000   0.8000   0.5000
  0.8000   0.2000   0.5000
  0.2000   0.2000   0.1000
  0.8000   0.8000   0.9000
  0.2000   0.8000   0.0000
  0.8000   0.2000   0.0000