E = -1
1
  2.8741   0.0000   0.0000
  0.0000   2.8741   0.0000
  0.0000   0.0000   5.7469
Zn Ga N O
2 2 2 2
Direct
  0.2000   0.2000   0.7000
  0.8000   0.8000   0.3000
  0.2000   0.2000   0.1000
  0.8000   0.8000   0.9000
  0.8000   0.2000   0.5000
  0.2000   0.8000   0.5000
  0.8000   0.2000   0.0000
  0.2000   0.8000   0.0000