E = -1
1
  2.5749   0.0000   0.0000
  0.0000   2.5749   0.0000
  0.0000   0.0000   7.1600
Zn Ga N O
2 2 2 2
Direct
  0.2000   0.2000   0.6000
  0.7000   0.7000   0.4000
  0.2000   0.2000   0.9000
  0.7000   0.7000   0.1000
  0.2000   0.2000   0.3000
  0.7000   0.7000   0.7000
  0.7000   0.2000   0.0000
  0.2000   0.7000   0.0000