B2 C6
1.0
4.968814 0.000000 0.000000
0.000000 15.000000 0.000000
-1.281707 0.000000 4.827961
B C
2 6
direct
0.795018 0.500000 0.710377 B
0.473697 0.500000 0.030390 B
0.468626 0.500000 0.705068 C
0.935724 0.500000 0.473140 C
0.779680 0.500000 0.196939 C
0.236818 0.500000 0.472804 C
0.237933 0.500000 0.172754 C
0.961391 0.500000 0.016310 C
