B2 C6                                   
   1.00000000000000     
     5.2016810620712413    0.0000000000000000    0.0000000000000000
     0.0000000000000000    4.4182671465760253    0.0000000000000000
     0.0000000000000000    0.0000000000000000   15.0000000000000000
   B    C 
     2     6
Direct
  0.8738800610517283  0.9701343390409545  0.9997440448077735
  0.1261199469925399  0.4701344821383382  0.9997494225824796
  0.6207131589248851  0.4765502211790346  0.9998314668380496
  0.3792869486854503  0.9765501666512572  0.9998262999491279
  0.6161575880803944  0.1488986979056132  0.9998240154043143
  0.3838423809306066  0.6488989242542377  0.9998282849268770
  0.8639850899999325  0.6266395907371103  0.9997578853578518
  0.1360148253344701  0.1266395780934465  0.9997525801335267
 
  0.00000000E+00  0.00000000E+00  0.00000000E+00
  0.00000000E+00  0.00000000E+00  0.00000000E+00
  0.00000000E+00  0.00000000E+00  0.00000000E+00
  0.00000000E+00  0.00000000E+00  0.00000000E+00
  0.00000000E+00  0.00000000E+00  0.00000000E+00
  0.00000000E+00  0.00000000E+00  0.00000000E+00
  0.00000000E+00  0.00000000E+00  0.00000000E+00
  0.00000000E+00  0.00000000E+00  0.00000000E+00
