B2 C6                                   
   1.00000000000000     
     4.5320422723914042    0.0000000000000000    0.0000000000000000
     0.0000000000000000    4.8295382693558837    0.0000000000000000
     0.0000000000000000    0.0000000000000000   15.0000000000000000
   B    C 
     2     6
Direct
  0.4584640158020583  0.0608255687164503  0.0230960455291118
  0.0414806250001224  0.5641573041730540  0.0230273455510185
  0.4401987597939103  0.5486420687298498  0.9827579833209243
  0.0598895545602054  0.0763036051045403  0.9828207482960556
  0.7642104742856672  0.1572084079047053  0.9921183359883652
  0.7358102059830719  0.4677973462207350  0.9920737497029107
  0.2499802712141467  0.8125291397966203  0.0086273169117029
  0.2499660933608172  0.3125365593540307  0.0121684746999002
 
  0.00000000E+00  0.00000000E+00  0.00000000E+00
  0.00000000E+00  0.00000000E+00  0.00000000E+00
  0.00000000E+00  0.00000000E+00  0.00000000E+00
  0.00000000E+00  0.00000000E+00  0.00000000E+00
  0.00000000E+00  0.00000000E+00  0.00000000E+00
  0.00000000E+00  0.00000000E+00  0.00000000E+00
  0.00000000E+00  0.00000000E+00  0.00000000E+00
  0.00000000E+00  0.00000000E+00  0.00000000E+00
