B2 C6                                   
   1.00000000000000     
     5.3605213423868383    0.0000000000000000    0.0000000000000000
     0.0000000000000000    5.7862858223045599    0.0000000000000000
     0.0000000000000000    0.0000000000000000   15.0000000000000000
   B    C 
     2     6
Direct
 -0.0000099264732085  0.5000067571632447  0.0038272899806009
  0.4999749344626414  0.9999934919799544  0.0038270723679132
  0.0000256220898912  0.9999925961362054  0.0042564788534481
  0.5000371359056894  0.5000073784920818  0.0042561084753489
  0.2389153728113065  0.0000091647630772  0.0042595530077433
  0.7389266826927083  0.4999908763975268  0.0042598125256965
  0.7610587118872082  0.0000091467042779  0.0042588172343885
  0.2610714666237632  0.4999905883636322  0.0042588675548583
 
  0.00000000E+00  0.00000000E+00  0.00000000E+00
  0.00000000E+00  0.00000000E+00  0.00000000E+00
  0.00000000E+00  0.00000000E+00  0.00000000E+00
  0.00000000E+00  0.00000000E+00  0.00000000E+00
  0.00000000E+00  0.00000000E+00  0.00000000E+00
  0.00000000E+00  0.00000000E+00  0.00000000E+00
  0.00000000E+00  0.00000000E+00  0.00000000E+00
  0.00000000E+00  0.00000000E+00  0.00000000E+00
