B2 C6
1.0
15.000000 0.000000 0.000000
0.000000 5.186704 0.000000
0.000000 0.000000 4.442818
B C
2 6
direct
0.000000 0.873169 0.851845 B
0.000000 0.126831 0.351845 B
0.000000 0.863270 0.508911 C
0.000000 0.136730 0.008911 C
0.000000 0.615417 0.030808 C
0.000000 0.384583 0.530808 C
0.000000 0.619206 0.358435 C
0.000000 0.380794 0.858435 C
