B2 C6                                   
   1.00000000000000     
     5.3464712606015414    0.0000000000000000    0.0000000000000000
     0.0000000000000000    5.6988895571692399    0.0000000000000000
     0.0000000000000000    0.0000000000000000   15.0000000000000000
   B    C 
     2     6
Direct
 -0.0000081607601847  0.9096866915245403 -0.0034744646684554
  0.4999878748766988  0.3903960114471436  0.9984255026785491
  0.5001879252237525  0.8988306337334677  0.9987159847737580
 -0.0000134740875391  0.4011802207829136  0.9974186023958104
  0.7389756973579481  0.8729741176241422  0.9975953649851866
  0.2608359343646539  0.8729932590140012  0.9975945646183687
  0.7610770795474214  0.4269806723974845  0.9986364126065274
  0.2389571234772493  0.4269583934763023  0.9986310326102527
 
  0.00000000E+00  0.00000000E+00  0.00000000E+00
  0.00000000E+00  0.00000000E+00  0.00000000E+00
  0.00000000E+00  0.00000000E+00  0.00000000E+00
  0.00000000E+00  0.00000000E+00  0.00000000E+00
  0.00000000E+00  0.00000000E+00  0.00000000E+00
  0.00000000E+00  0.00000000E+00  0.00000000E+00
  0.00000000E+00  0.00000000E+00  0.00000000E+00
  0.00000000E+00  0.00000000E+00  0.00000000E+00
