B4 C12
1.0
6.238917 0.000000 0.000000
0.000000 7.669504 0.000000
0.000000 0.000000 15.000000
B C
4 12
direct
0.367286 0.000000 0.500000 B
0.132714 0.500000 0.500000 B
0.867286 0.500000 0.500000 B
0.632714 0.000000 0.500000 B
0.217869 0.162244 0.500000 C
0.282131 0.337756 0.500000 C
0.500000 0.404440 0.500000 C
0.000000 0.095560 0.500000 C
0.217869 0.837756 0.500000 C
0.282131 0.662244 0.500000 C
0.717869 0.662244 0.500000 C
0.782131 0.837756 0.500000 C
0.000000 0.904440 0.500000 C
0.500000 0.595560 0.500000 C
0.717869 0.337756 0.500000 C
0.782131 0.162244 0.500000 C
