B3 C9                                   
   1.00000000000000     
     5.5930876792630757    0.0000000000000000    0.0000000000000000
     0.1351509882483674    6.3924771762512949    0.0000000000000000
     0.0000000000000000    0.0000000000000000   15.0000000000000000
   B    C 
     3     9
Direct
  0.4519104763325787  0.2727493476164849  0.0006003263590824
  0.6611034418403796  0.6095578800455744 -0.0019546702447171
  0.0341880454639924  0.0565397010882851  0.0036429144002637
  0.8630483374460718  0.4370368431902705 -0.0015329114925390
  0.7841823652513087  0.0177170233658715  0.0006510563801205
  0.2836025578055251  0.0885419510339042  0.0040355443113566
  0.2502894023810938  0.6768716410601773  0.0008755908509559
  0.4168015235390207  0.5056952440462560 -0.0023996223650712
  0.3770711595421512  0.8820804356539443  0.0026130479648269
  0.7235471716198805  0.2359626003673252 -0.0004696543333842
  0.6264796660902778  0.8444814968517426  0.0005373080731845
  0.0732298526877261  0.5394318356801776 -0.0006669299040707
 
  0.00000000E+00  0.00000000E+00  0.00000000E+00
  0.00000000E+00  0.00000000E+00  0.00000000E+00
  0.00000000E+00  0.00000000E+00  0.00000000E+00
  0.00000000E+00  0.00000000E+00  0.00000000E+00
  0.00000000E+00  0.00000000E+00  0.00000000E+00
  0.00000000E+00  0.00000000E+00  0.00000000E+00
  0.00000000E+00  0.00000000E+00  0.00000000E+00
  0.00000000E+00  0.00000000E+00  0.00000000E+00
  0.00000000E+00  0.00000000E+00  0.00000000E+00
  0.00000000E+00  0.00000000E+00  0.00000000E+00
  0.00000000E+00  0.00000000E+00  0.00000000E+00
  0.00000000E+00  0.00000000E+00  0.00000000E+00
