B3 C9
1.0
6.439270 0.000000 0.000000
-3.219635 5.576572 0.000000
0.000000 0.000000 15.000000
B C
3 9
direct
0.000000 0.000000 0.003043 B
0.666667 0.333333 0.004115 B
0.333333 0.666667 0.004115 B
0.000000 0.225811 0.003585 C
0.774189 0.774189 0.003585 C
0.225811 0.000000 0.003585 C
0.253771 0.395565 0.003820 C
0.604435 0.858206 0.003820 C
0.746229 0.141794 0.003820 C
0.858206 0.604435 0.003820 C
0.395565 0.253771 0.003820 C
0.141794 0.746229 0.003820 C
