B2 C6
1.0
4.943209 0.000000 0.000000
0.000000 15.000000 0.000000
-1.142012 0.000000 5.231553
B C
2 6
direct
0.000000 0.002668 0.500000 B
0.500000 0.002581 0.500000 B
0.360759 0.003031 0.929080 C
0.639241 0.003031 0.070920 C
0.287952 0.002677 0.652302 C
0.712048 0.002677 0.347698 C
0.132736 0.003300 0.044102 C
0.867264 0.003300 0.955898 C
