B2 C6
1.0
5.173870 0.000000 0.000000
-2.586935 4.480702 0.000000
0.000000 0.000000 15.000000
B C
2 6
direct
0.666667 0.333333 0.000000 B
0.333333 0.666667 0.000000 B
0.158626 0.841374 0.000000 C
0.317251 0.158626 0.000000 C
0.682749 0.841374 0.000000 C
0.841374 0.682749 0.000000 C
0.158626 0.317251 0.000000 C
0.841374 0.158626 0.000000 C
