B2 C6                                   
   1.00000000000000     
     4.9270318602925496    0.0000000000000000    0.0000000000000000
     1.0018882916440379    5.3280439798555692    0.0000000000000000
     0.0000000000000000    0.0000000000000000   15.0000000000000000
   B    C 
     2     6
Direct
  0.4467331913787410  0.1135625203903188  0.0076341410680060
  0.4465951123043702  0.6134510404839245  0.9942785423877075
  0.0080877132151555  0.9511096636022922  0.0123137144884182
  0.0087993094124860  0.4509120387914703  0.9896093587409853
  0.7558407216547323  0.5463893846340317  0.9889636075355838
  0.2888424206358365  0.3891742077304726  0.9943390781007891
  0.7558199701231308  0.0463063158716202  0.0129508431028156
  0.2892815612755401  0.8890948284958694  0.0075507145756891
 
  0.00000000E+00  0.00000000E+00  0.00000000E+00
  0.00000000E+00  0.00000000E+00  0.00000000E+00
  0.00000000E+00  0.00000000E+00  0.00000000E+00
  0.00000000E+00  0.00000000E+00  0.00000000E+00
  0.00000000E+00  0.00000000E+00  0.00000000E+00
  0.00000000E+00  0.00000000E+00  0.00000000E+00
  0.00000000E+00  0.00000000E+00  0.00000000E+00
  0.00000000E+00  0.00000000E+00  0.00000000E+00
