B2 C6
1.0
15.000000 0.000000 0.000000
0.000000 3.785990 0.000000
0.000000 0.000000 7.268775
B C
2 6
direct
0.500000 0.000000 0.878195 B
0.500000 0.500000 0.378195 B
0.500000 0.500000 0.588618 C
0.500000 0.185081 0.695165 C
0.500000 0.814919 0.695165 C
0.500000 0.000000 0.088618 C
0.500000 0.685081 0.195165 C
0.500000 0.314919 0.195165 C
