B2 C6                                   
   1.00000000000000     
     4.4744937130755931    0.0000000000000000    0.0000000000000000
     0.0000000000000000    5.1702204190372862    0.0000000000000000
     0.0000000000000000    0.0000000000000000   15.0000000000000000
   B    C 
     2     6
Direct
  0.3154688010519442 -0.0000006169067741  0.9952501311872767
  0.6845324275310884 -0.0000286182122060  0.9952361253450360
  0.3277582596809663  0.5000127276774211  0.9946739369620154
  0.6722404533334637  0.4999987818735616  0.9946711849971398
  0.1603726299014396  0.7336207423659192  0.9944392149824149
  0.8396244344979020  0.7336046560056079  0.9944380342759211
  0.8396192620875620  0.2663876349672998  0.9944332655375823
  0.1603837319156341  0.2664046922291783  0.9944461067126079
 
  0.00000000E+00  0.00000000E+00  0.00000000E+00
  0.00000000E+00  0.00000000E+00  0.00000000E+00
  0.00000000E+00  0.00000000E+00  0.00000000E+00
  0.00000000E+00  0.00000000E+00  0.00000000E+00
  0.00000000E+00  0.00000000E+00  0.00000000E+00
  0.00000000E+00  0.00000000E+00  0.00000000E+00
  0.00000000E+00  0.00000000E+00  0.00000000E+00
  0.00000000E+00  0.00000000E+00  0.00000000E+00
