B2 C6
1.0
5.173904 0.000000 0.000000
-2.586952 4.480732 0.000000
0.000000 0.000000 15.000000
B C
2 6
direct
0.333333 0.666667 0.000000 B
0.666667 0.333333 0.000000 B
0.158621 0.841379 0.000000 C
0.158621 0.317241 0.000000 C
0.682759 0.841379 0.000000 C
0.841379 0.682759 0.000000 C
0.317241 0.158621 0.000000 C
0.841379 0.158621 0.000000 C
