B2 C6                                   
   1.00000000000000     
     5.1737628460846716    0.0000000000000000    0.0000000000000000
    -2.5868814230423358    4.4810341450957454    0.0000000000000000
     0.0000000000000000    0.0000000000000000   15.0000000000000000
   B    C 
     2     6
Direct
  0.6666764283904589  0.3333411726030068  0.0047039074055969
  0.3333237324798579  0.6666589049992524  0.0047024578955601
  0.6830978823525949  0.8413575772262274  0.0047160469558980
  0.8417228602179342  0.6831167007530106  0.0047219033720478
  0.1582688472682181  0.3168792351987039  0.0047046696412916
  0.8413649913641961  0.1582804222578488  0.0047061998186053
  0.3169075773376330  0.1586404306706924  0.0047071341889501
  0.1586376805891139  0.8417255562912507  0.0047136807220478
 
  0.00000000E+00  0.00000000E+00  0.00000000E+00
  0.00000000E+00  0.00000000E+00  0.00000000E+00
  0.00000000E+00  0.00000000E+00  0.00000000E+00
  0.00000000E+00  0.00000000E+00  0.00000000E+00
  0.00000000E+00  0.00000000E+00  0.00000000E+00
  0.00000000E+00  0.00000000E+00  0.00000000E+00
  0.00000000E+00  0.00000000E+00  0.00000000E+00
  0.00000000E+00  0.00000000E+00  0.00000000E+00
