B1 C3
1.0
2.512387 0.000000 0.000000
0.000000 15.000000 0.000000
0.000000 0.000000 4.545134
B C
1 3
direct
0.000000 0.500000 0.912915 B
0.500000 0.500000 0.411885 C
0.500000 0.500000 0.101931 C
0.000000 0.500000 0.573269 C
