B2 C6
1.0
5.159327 0.000000 0.000000
0.000000 15.000000 0.000000
0.000000 0.000000 4.474846
B C
2 6
direct
0.250000 0.000000 0.840096 B
0.750000 0.000000 0.159904 B
0.250000 0.000000 0.188905 C
0.750000 0.000000 0.811095 C
0.493951 0.000000 0.341215 C
0.993951 0.000000 0.658785 C
0.006049 0.000000 0.341215 C
0.506049 0.000000 0.658785 C
