B2 C6
1.0
4.801664 0.000000 0.000000
0.000000 5.397058 0.000000
0.000000 0.000000 15.000000
B C
2 6
direct
0.940467 0.284042 0.001072 B
0.940467 0.715958 0.001072 B
0.637085 0.000000 0.000622 C
0.933475 0.000000 0.001279 C
0.137415 0.500000 0.000924 C
0.434104 0.500000 0.000586 C
0.613494 0.282995 0.000592 C
0.613494 0.717005 0.000592 C
