B2 C6
1.0
3.927056 0.000000 0.000000
0.000000 6.309885 0.000000
0.000000 0.000000 15.000000
B C
2 6
direct
0.000000 0.866562 0.000957 B
0.000000 0.133438 0.000957 B
0.821323 0.500000 0.001486 C
0.178677 0.500000 0.001486 C
0.680038 0.709646 0.001267 C
0.319962 0.709646 0.001267 C
0.319962 0.290354 0.001267 C
0.680038 0.290354 0.001267 C
