B2 C6                                   
   1.00000000000000     
     5.1737217156368835    0.0000000000000000    0.0000000000000000
     0.0000000000000000    4.4579096769331192    0.0000000000000000
     0.0000000000000000    0.0000000000000000   15.0000000000000000
   B    C 
     2     6
Direct
  0.4999987565936615  0.8725079321141961  0.9988133070717776
  0.0000009753972586  0.5524991592499490  0.9987918122848517
  0.4999972020768280  0.5240524254983471  0.9986976223535385
  0.0000010656295708  0.9009420413261751  0.9988944175053780
  0.7437755618726535  0.3715178387911600  0.9987285542101443
  0.2562281142615303  0.3715236631514189  0.9987290365675794
  0.7562309107676382  0.0534805471361283  0.9988454692142961
  0.2437674134008521  0.0534763927326215  0.9988457807924227
 
  0.00000000E+00  0.00000000E+00  0.00000000E+00
  0.00000000E+00  0.00000000E+00  0.00000000E+00
  0.00000000E+00  0.00000000E+00  0.00000000E+00
  0.00000000E+00  0.00000000E+00  0.00000000E+00
  0.00000000E+00  0.00000000E+00  0.00000000E+00
  0.00000000E+00  0.00000000E+00  0.00000000E+00
  0.00000000E+00  0.00000000E+00  0.00000000E+00
  0.00000000E+00  0.00000000E+00  0.00000000E+00
