B3 C9                                   
   1.00000000000000     
     5.4394592296152142    0.0000000000000000    0.0000000000000000
    -2.7197296148076071    4.7101057281879362    0.0000000000000000
     0.0000000000000000    0.0000000000000000   15.0000000000000000
   B    C 
     3     9
Direct
  0.9999343009772751  0.9999358415256050  0.0578218239008712
  0.6666239399386574  0.3333142907248517  0.0505818317123211
  0.3333624055270845  0.6666701185454235  0.0505814064770904
  0.2624697938161346  0.2624786922940998  0.9651070093616416
  0.7375482872574901 -0.0000164098736785  0.9651082235663776
 -0.0000313249834285  0.7375546954006386  0.9651875879845839
  0.5000470882414834  0.5000516994498753  0.0168790115513540
  0.4999808226186929  0.0000086493143078  0.0168676919488336
  0.0000040522852511  0.4999876041157245  0.0169344292679372
  0.0000347771866715  0.2625673966258691  0.9651531116603554
  0.7374636313840827  0.7374337609555653  0.9650982513556629
  0.2625622257505983  0.0000136609217107  0.9650716212129621
 
  0.00000000E+00  0.00000000E+00  0.00000000E+00
  0.00000000E+00  0.00000000E+00  0.00000000E+00
  0.00000000E+00  0.00000000E+00  0.00000000E+00
  0.00000000E+00  0.00000000E+00  0.00000000E+00
  0.00000000E+00  0.00000000E+00  0.00000000E+00
  0.00000000E+00  0.00000000E+00  0.00000000E+00
  0.00000000E+00  0.00000000E+00  0.00000000E+00
  0.00000000E+00  0.00000000E+00  0.00000000E+00
  0.00000000E+00  0.00000000E+00  0.00000000E+00
  0.00000000E+00  0.00000000E+00  0.00000000E+00
  0.00000000E+00  0.00000000E+00  0.00000000E+00
  0.00000000E+00  0.00000000E+00  0.00000000E+00
