Zn2 Ga2 N2 O2
1.0
4.799352 0.000000 0.000000
0.112910 4.895773 0.000000
1.827515 0.063933 5.011953
Zn Ga N O
2 2 2 2
direct
0.348124 0.651569 0.882048 Zn
0.171648 0.640015 0.434968 Zn
0.376099 0.177978 0.301586 Ga
0.896275 0.065647 0.953814 Ga
0.963335 0.485559 0.835104 N
0.755261 0.674014 0.879452 N
0.122106 0.934297 0.179950 O
0.267153 0.970923 0.633080 O
