Zn2 Ga2 N2 O2
1.0
4.517306 0.000000 0.000000
-0.777348 5.063897 0.000000
-2.200009 -0.500807 4.858672
Zn Ga N O
2 2 2 2
direct
0.058556 0.640703 0.845226 Zn
0.284428 0.773516 0.371023 Zn
0.744920 0.255533 0.385067 Ga
0.847785 0.010236 0.024722 Ga
0.376616 0.911055 0.757027 N
0.016110 0.234662 0.787567 N
0.321525 0.192818 0.771204 O
0.650059 0.581478 0.458164 O
