Zn2 Ga2 N2 O2
1.0
3.135365 0.000000 0.000000
-0.490015 5.439821 0.000000
-1.236874 -1.258347 6.336863
Zn Ga N O
2 2 2 2
direct
0.754972 0.622797 0.712674 Zn
0.075011 0.183698 0.486893 Zn
0.794613 0.052654 0.910842 Ga
0.192060 0.646342 0.219460 Ga
0.386473 0.139808 0.103371 N
0.438811 0.034621 0.270984 N
0.692176 0.249218 0.703223 O
0.165884 0.570864 0.492552 O
