Zn2 Ga2 N2 O2
1.0
3.200456 0.000000 0.000000
-0.079255 5.443297 0.000000
-1.079844 -0.695852 5.838122
Zn Ga N O
2 2 2 2
direct
0.645195 0.062005 0.380537 Zn
0.913969 0.177744 0.977438 Zn
0.501630 0.738411 0.029982 Ga
0.137019 0.570455 0.417628 Ga
0.011530 0.539964 0.072420 N
0.194512 0.918605 0.525961 N
0.664739 0.419579 0.509312 O
0.331407 0.973236 0.786722 O
