Zn2 Ga2 N2 O2
1.0
4.475864 0.000000 0.000000
0.000000 4.711935 0.000000
0.000000 0.000000 4.603171
Zn Ga N O
2 2 2 2
direct
0.729694 0.500000 0.500000 Zn
0.270306 0.500000 0.000000 Zn
0.735073 0.000000 0.000000 Ga
0.264927 0.000000 0.500000 Ga
0.500000 0.236787 0.750000 N
0.500000 0.763213 0.250000 N
0.000000 0.772120 0.750000 O
0.000000 0.227880 0.250000 O
