Zn2 Ga2 N2 O2
1.0
4.490334 0.000000 0.000000
-2.184192 5.167835 0.000000
-2.152453 -0.909981 5.221692
Zn Ga N O
2 2 2 2
direct
0.826773 0.395558 0.149010 Zn
0.420527 0.446041 0.500983 Zn
0.000567 0.061390 0.858955 Ga
0.074379 0.845762 0.382213 Ga
0.075032 0.147755 0.205762 N
0.437410 0.262828 0.804997 N
0.527135 0.071306 0.685233 O
0.838177 0.769359 0.612847 O
