Zn4 Ga4 N4 O4
1.0
10.796439 0.000000 0.000000
0.000000 3.255072 0.000000
-1.025035 0.000000 5.521147
Zn Ga N O
4 4 4 4
direct
0.384477 0.000000 0.195329 Zn
0.135147 0.500000 0.925380 Zn
0.884477 0.500000 0.195329 Zn
0.635147 0.000000 0.925380 Zn
0.378784 0.500000 0.663585 Ga
0.129682 0.000000 0.440571 Ga
0.878784 0.000000 0.663585 Ga
0.629682 0.500000 0.440571 Ga
0.198127 0.500000 0.612640 N
0.449264 0.500000 0.377024 N
0.698127 0.000000 0.612640 N
0.949264 0.000000 0.377024 N
0.437100 0.000000 0.855052 O
0.187204 0.000000 0.130418 O
0.937100 0.500000 0.855052 O
0.687204 0.500000 0.130418 O
