Zn4 Ga4 N4 O4
1.0
10.797893 0.000000 0.000000
0.000000 3.256044 0.000000
-1.029911 0.000000 5.518204
Zn Ga N O
4 4 4 4
direct
0.277371 0.000000 0.649600 Zn
0.528048 0.000000 0.379693 Zn
0.777371 0.500000 0.649600 Zn
0.028048 0.500000 0.379693 Zn
0.533734 0.500000 0.911433 Ga
0.282857 0.500000 0.134402 Ga
0.033734 0.000000 0.911433 Ga
0.782857 0.000000 0.134402 Ga
0.214385 0.000000 0.962337 N
0.463285 0.500000 0.197993 N
0.714385 0.500000 0.962337 N
0.963285 0.000000 0.197993 N
0.225345 0.500000 0.444569 O
0.475396 0.000000 0.719972 O
0.725345 0.000000 0.444569 O
0.975396 0.500000 0.719972 O
