Zn2 Ga2 N2 O2
1.0
5.283201 0.000000 0.000000
2.600479 4.631927 0.000000
1.891652 1.252429 5.391594
Zn Ga N O
2 2 2 2
direct
0.597873 0.873733 0.170116 Zn
0.161974 0.058251 0.763259 Zn
0.774955 0.783912 0.706303 Ga
0.476895 0.467789 0.762337 Ga
0.764724 0.069938 0.840304 N
0.527634 0.807081 0.514980 N
0.460841 0.690975 0.991245 O
0.135103 0.448321 0.751456 O
