Zn2 Ga2 N2 O2
1.0
5.072818 0.000000 0.000000
-0.326684 5.439194 0.000000
-1.990785 -2.836520 6.188816
Zn Ga N O
2 2 2 2
direct
0.137915 0.849582 0.702247 Zn
0.042471 0.669396 0.317124 Zn
0.408263 0.802609 0.183646 Ga
0.941238 0.162524 0.140570 Ga
0.687855 0.359284 0.656790 N
0.504208 0.406652 0.712002 N
0.772996 0.869346 0.179788 O
0.205054 0.980608 0.007834 O
