Zn2 Ga2 N2 O2
1.0
5.541552 0.000000 0.000000
0.000000 3.237783 0.000000
-1.880409 0.000000 5.752145
Zn Ga N O
2 2 2 2
direct
0.452093 0.000000 0.343132 Zn
0.056283 0.000000 0.717370 Zn
0.954722 0.500000 0.194325 Ga
0.606614 0.500000 0.815816 Ga
0.675275 0.000000 0.659722 N
0.268583 0.500000 0.863898 N
0.079117 0.000000 0.379634 O
0.307312 0.500000 0.126103 O
