Zn4 Ga4 N4 O4
1.0
6.351076 0.000000 0.000000
0.000000 8.923555 0.000000
-2.986912 0.000000 4.528175
Zn Ga N O
4 4 4 4
direct
0.500000 0.140121 0.500000 Zn
0.500000 0.750148 0.000000 Zn
0.000000 0.640121 0.500000 Zn
0.000000 0.250148 0.000000 Zn
0.000000 0.997026 0.500000 Ga
0.500000 0.444638 0.000000 Ga
0.500000 0.497026 0.500000 Ga
0.000000 0.944638 0.000000 Ga
0.840490 0.085967 0.670403 N
0.159510 0.085967 0.329597 N
0.340490 0.585967 0.670403 N
0.659510 0.585967 0.329597 N
0.163805 0.848049 0.833394 O
0.836195 0.848049 0.166606 O
0.663805 0.348049 0.833394 O
0.336195 0.348049 0.166606 O
