Zn4 Ga4 N4 O4
1.0
11.670128 0.000000 0.000000
0.000000 3.165396 0.000000
-4.057184 0.000000 5.727319
Zn Ga N O
4 4 4 4
direct
0.145091 0.000000 0.097913 Zn
0.069338 0.500000 0.428065 Zn
0.645091 0.500000 0.097913 Zn
0.569338 0.000000 0.428065 Zn
0.871142 0.000000 0.097066 Ga
0.386114 0.000000 0.666110 Ga
0.371142 0.500000 0.097066 Ga
0.886114 0.500000 0.666110 Ga
0.560959 0.000000 0.700055 N
0.665248 0.000000 0.938646 N
0.060959 0.500000 0.700055 N
0.165248 0.500000 0.938646 N
0.408235 0.500000 0.851488 O
0.195150 0.000000 0.420658 O
0.908235 0.000000 0.851488 O
0.695150 0.500000 0.420658 O
