Zn8 Ga8 N8 O8
1.0
8.904287 0.000000 0.000000
0.000000 9.357913 0.000000
0.000000 0.000000 5.284694
Zn Ga N O
8 8 8 8
direct
0.000000 0.159601 0.522636 Zn
0.000000 0.340399 0.022636 Zn
0.000000 0.659601 0.022636 Zn
0.000000 0.840399 0.522636 Zn
0.500000 0.159601 0.022636 Zn
0.500000 0.340399 0.522636 Zn
0.500000 0.659601 0.522636 Zn
0.500000 0.840399 0.022636 Zn
0.144959 0.000000 0.049333 Ga
0.355041 0.000000 0.549333 Ga
0.144959 0.500000 0.549333 Ga
0.355041 0.500000 0.049333 Ga
0.644959 0.000000 0.549333 Ga
0.855041 0.000000 0.049333 Ga
0.644959 0.500000 0.049333 Ga
0.855041 0.500000 0.549333 Ga
0.000000 0.353505 0.649497 N
0.500000 0.146495 0.649497 N
0.000000 0.853505 0.149497 N
0.500000 0.646495 0.149497 N
0.500000 0.353505 0.149497 N
0.000000 0.146495 0.149497 N
0.500000 0.853505 0.649497 N
0.000000 0.646495 0.649497 N
0.841920 0.000000 0.678430 O
0.158080 0.000000 0.678430 O
0.841920 0.500000 0.178430 O
0.158080 0.500000 0.178430 O
0.341920 0.000000 0.178430 O
0.658080 0.000000 0.178430 O
0.341920 0.500000 0.678430 O
0.658080 0.500000 0.678430 O
