Zn2 Ga2 N2 O2
1.0
3.736455 0.000000 0.000000
0.371475 5.145197 0.000000
1.351315 0.242628 5.744078
Zn Ga N O
2 2 2 2
direct
0.024255 0.345105 0.455633 Zn
0.663841 0.707358 0.143472 Zn
0.484501 0.864440 0.553509 Ga
0.300022 0.296073 0.900526 Ga
0.052137 0.087607 0.724875 N
0.175636 0.516748 0.149554 N
0.693070 0.986705 0.844230 O
0.506537 0.495964 0.628202 O
