Zn2 Ga2 N2 O2
1.0
4.821888 0.000000 0.000000
2.001503 4.445921 0.000000
0.156959 1.860955 5.552517
Zn Ga N O
2 2 2 2
direct
0.259526 0.194041 0.299021 Zn
0.148373 0.611067 0.625790 Zn
0.853037 0.944591 0.008645 Ga
0.495193 0.709331 0.015723 Ga
0.100693 0.258216 0.584312 N
0.136101 0.956511 0.757088 N
0.516449 0.300101 0.056927 O
0.190628 0.826143 0.252495 O
