Zn2 Ga2 N2 O2
1.0
4.475921 0.000000 0.000000
0.000000 4.711627 0.000000
0.000000 0.000000 4.603246
Zn Ga N O
2 2 2 2
direct
0.270300 0.500000 0.500000 Zn
0.729700 0.500000 0.000000 Zn
0.735130 0.000000 0.500000 Ga
0.264870 0.000000 0.000000 Ga
0.500000 0.763206 0.250000 N
0.500000 0.236794 0.750000 N
0.000000 0.772169 0.750000 O
0.000000 0.227831 0.250000 O
