Zn2 Ga2 N2 O2
1.0
4.475628 0.000000 0.000000
0.000000 4.712206 0.000000
0.000000 0.000000 4.603061
Zn Ga N O
2 2 2 2
direct
0.229687 0.500000 0.500000 Zn
0.770313 0.500000 0.000000 Zn
0.235093 0.000000 0.000000 Ga
0.764907 0.000000 0.500000 Ga
0.000000 0.763194 0.750000 N
0.000000 0.236806 0.250000 N
0.500000 0.227811 0.750000 O
0.500000 0.772189 0.250000 O
