Zn1 Ga1 N1 O1
1.0
3.240509 0.000000 0.000000
0.000000 3.272420 0.000000
0.000000 0.000000 4.579371
Zn Ga N O
1 1 1 1
direct
0.500000 0.000000 0.480792 Zn
0.000000 0.500000 0.947468 Ga
0.500000 0.500000 0.727192 N
0.000000 0.000000 0.194548 O
