Zn4 Ga4 N4 O4
1.0
10.538158 0.000000 0.000000
0.000000 3.249997 0.000000
-4.859135 0.000000 5.949716
Zn Ga N O
4 4 4 4
direct
0.444249 0.500000 0.440797 Zn
0.717979 0.000000 0.926618 Zn
0.944249 0.000000 0.440797 Zn
0.217979 0.500000 0.926618 Zn
0.325100 0.000000 0.662890 Ga
0.557243 0.000000 0.206225 Ga
0.825100 0.500000 0.662890 Ga
0.057243 0.500000 0.206225 Ga
0.451340 0.500000 0.197248 N
0.286746 0.500000 0.492352 N
0.951340 0.000000 0.197248 N
0.786746 0.000000 0.492352 N
0.538768 0.000000 0.942490 O
0.678501 0.500000 0.731381 O
0.038768 0.500000 0.942490 O
0.178501 0.000000 0.731381 O
