Zn2 Ga2 N2 O2
1.0
4.827475 0.000000 0.000000
-0.273323 7.391500 0.000000
-0.131522 -0.255490 8.052847
Zn Ga N O
2 2 2 2
direct
0.307199 0.954847 0.628340 Zn
0.306479 0.452559 0.274461 Zn
0.798740 0.924406 0.104469 Ga
0.793857 0.423441 0.799896 Ga
0.760069 0.575488 0.098219 N
0.749648 0.082884 0.789554 N
0.340938 0.043491 0.256350 O
0.343068 0.542885 0.648710 O
