Zn2 Ga2 N2 O2
1.0
3.455656 0.000000 0.000000
-0.482618 5.301205 0.000000
-0.387037 -0.168213 5.595294
Zn Ga N O
2 2 2 2
direct
0.163377 0.475139 0.772041 Zn
0.225226 0.036298 0.231753 Zn
0.666946 0.666346 0.261753 Ga
0.694197 0.001582 0.728787 Ga
0.636779 0.317456 0.164621 N
0.867887 0.241236 0.995283 N
0.198359 0.112943 0.597235 O
0.647228 0.649000 0.648528 O
