Zn2 Ga2 N2 O2
1.0
5.026846 0.000000 0.000000
0.030789 5.228477 0.000000
2.435555 0.349228 4.711995
Zn Ga N O
2 2 2 2
direct
0.513028 0.611728 0.656908 Zn
0.178593 0.220115 0.843070 Zn
0.120809 0.761541 0.341533 Ga
0.835313 0.619885 0.940022 Ga
0.092358 0.172083 0.466529 N
0.084365 0.333403 0.303884 N
0.521844 0.732477 0.285255 O
0.153690 0.848767 0.962800 O
