Zn2 Ga2 N2 O2
1.0
4.637705 0.000000 0.000000
1.780101 4.625949 0.000000
1.733780 -0.163912 5.848707
Zn Ga N O
2 2 2 2
direct
0.367788 0.300599 0.543320 Zn
0.639282 0.493284 0.910231 Zn
0.999855 0.793475 0.753496 Ga
0.026231 0.076292 0.219924 Ga
0.743757 0.186657 0.678697 N
0.071939 0.100806 0.513601 N
0.229070 0.839167 0.969363 O
0.622077 0.309720 0.211368 O
