Zn4 Ga4 N4 O4
1.0
6.512955 0.000000 0.000000
0.000000 6.515173 0.000000
-3.229900 0.000000 4.585998
Zn Ga N O
4 4 4 4
direct
0.952509 0.615486 0.412514 Zn
0.952509 0.384514 0.912514 Zn
0.452509 0.115486 0.412514 Zn
0.452509 0.884514 0.912514 Zn
0.470319 0.366613 0.912464 Ga
0.970319 0.133387 0.412464 Ga
0.970319 0.866613 0.912464 Ga
0.470319 0.633387 0.412464 Ga
0.828039 0.365997 0.162516 N
0.828039 0.634003 0.662516 N
0.328039 0.865997 0.162516 N
0.328039 0.134003 0.662516 N
0.349168 0.612500 0.662511 O
0.349168 0.387500 0.162511 O
0.849168 0.112500 0.662511 O
0.849168 0.887500 0.162511 O
