Zn2 Ga2 N2 O2
1.0
4.756952 0.000000 0.000000
-0.372312 5.013770 0.000000
-2.109908 -0.549293 5.109707
Zn Ga N O
2 2 2 2
direct
0.075315 0.532313 0.392442 Zn
0.763102 0.906019 0.560149 Zn
0.055222 0.099878 0.140204 Ga
0.555810 0.639228 0.079515 Ga
0.226502 0.413758 0.766584 N
0.086339 0.210293 0.796890 N
0.334926 0.825981 0.270195 O
0.702784 0.872530 0.894021 O
