Zn2 Ga2 N2 O2
1.0
5.439046 0.000000 0.000000
0.666111 5.558393 0.000000
1.000523 1.178609 5.698463
Zn Ga N O
2 2 2 2
direct
0.648745 0.574976 0.972910 Zn
0.973556 0.958543 0.635046 Zn
0.750678 0.135775 0.138274 Ga
0.415518 0.817337 0.658535 Ga
0.081911 0.416168 0.412524 N
0.248395 0.527822 0.354627 N
0.686380 0.982425 0.459705 O
0.794816 0.886954 0.968378 O
