Zn4 Ga4 N4 O4
1.0
11.924439 0.000000 0.000000
0.000000 3.256111 0.000000
-2.630012 0.000000 4.990137
Zn Ga N O
4 4 4 4
direct
0.446712 0.500000 0.525545 Zn
0.698123 0.500000 0.442040 Zn
0.946712 0.000000 0.525545 Zn
0.198123 0.000000 0.442040 Zn
0.692265 0.000000 0.921954 Ga
0.441951 0.000000 0.994385 Ga
0.192265 0.500000 0.921954 Ga
0.941951 0.500000 0.994385 Ga
0.759319 0.500000 0.839212 N
0.509714 0.000000 0.749374 N
0.259319 0.000000 0.839212 N
0.009714 0.500000 0.749374 N
0.501127 0.500000 0.220890 O
0.750752 0.000000 0.306602 O
0.001127 0.000000 0.220890 O
0.250752 0.500000 0.306602 O
