Zn2 Ga2 N2 O2                           
   1.00000000000000     
     5.7198987905000500    0.8516904845210981   -1.3217288893973942
     0.8812518433193008    4.6991986059417661    0.2549862035147047
    -1.2793725307893096    0.0450088854785253    5.8868348709568208
   Zn   Ga   N    O 
     2     2     2     2
Direct
  0.4928942646194349  0.2400038355421925  0.5926823767223914
  0.0203713257986328  0.7194479113951483  0.1300037795525991
  0.1594540693325077  0.0852500914917729  0.9518022263171054
  0.6534305031425306  0.2111332330327173  0.1529003307723419
  0.7827869432283775  0.3942166831674835  0.8062787900990102
  0.7489014008859504  0.5076805345712185  0.9872496158426138
  0.3447864296491904  0.3018538908952403  0.2390656609821797
  0.3973750633433704  0.1404138199042284  0.8400172197117679
 
  0.00000000E+00  0.00000000E+00  0.00000000E+00
  0.00000000E+00  0.00000000E+00  0.00000000E+00
  0.00000000E+00  0.00000000E+00  0.00000000E+00
  0.00000000E+00  0.00000000E+00  0.00000000E+00
  0.00000000E+00  0.00000000E+00  0.00000000E+00
  0.00000000E+00  0.00000000E+00  0.00000000E+00
  0.00000000E+00  0.00000000E+00  0.00000000E+00
  0.00000000E+00  0.00000000E+00  0.00000000E+00
