Zn2 Ga2 N2 O2                           
   1.00000000000000     
     6.4089718819327546    0.9121919766399352   -1.0048455180532785
     1.1519754132762137    3.0105776636549373   -0.5198586950527861
    -0.7750407562089446   -0.5101725432485412    5.5586093908330207
   Zn   Ga   N    O 
     2     2     2     2
Direct
  0.0178468661746791  0.9952425719025456  0.0635766306963510
  0.8141861348934334  0.4488786873272834  0.5636755166289932
  0.2875069867005712  0.4626871248083815  0.5378900793409421
  0.5539794092556595  0.9481545356981831  0.0418031475818174
  0.1263693117665044  0.0756910619096191  0.4416949588912340
  0.8436854903505875  0.6020138509432590  0.9287686273256649
  0.3697635527786197  0.5712126299098228  0.9195919002693750
  0.5866622480799467  0.0961195375009015  0.4029991392656144
 
  0.00000000E+00  0.00000000E+00  0.00000000E+00
  0.00000000E+00  0.00000000E+00  0.00000000E+00
  0.00000000E+00  0.00000000E+00  0.00000000E+00
  0.00000000E+00  0.00000000E+00  0.00000000E+00
  0.00000000E+00  0.00000000E+00  0.00000000E+00
  0.00000000E+00  0.00000000E+00  0.00000000E+00
  0.00000000E+00  0.00000000E+00  0.00000000E+00
  0.00000000E+00  0.00000000E+00  0.00000000E+00
