Zn2 Ga2 N2 O2                           
   1.00000000000000     
     5.1835560798736751    1.6445330207363154    0.0301576661518405
     1.2925252133726957    4.5226703964171371   -1.3691370140555812
    -0.3043339111763461   -1.2424275311597002    5.0521926425610415
   Zn   Ga   N    O 
     2     2     2     2
Direct
  0.1524277227000259  0.4374702504090354  0.6581487378230587
  0.8246179969862422  0.8965234513026625  0.3707180030154474
  0.2751489379133328  0.9455476180844060  0.8900530432315770
  0.6240358730453022  0.2549114449662861  0.0927204127292566
  0.9046582728659114  0.2913522917214889  0.7431630888421982
  0.6745400436577453  0.5697159832514200  0.9855827655801633
  0.2191985041430477  0.4004694786226543  0.2675385783590644
  0.5253726486883882  0.0040094816420438  0.6920753704192378
 
  0.00000000E+00  0.00000000E+00  0.00000000E+00
  0.00000000E+00  0.00000000E+00  0.00000000E+00
  0.00000000E+00  0.00000000E+00  0.00000000E+00
  0.00000000E+00  0.00000000E+00  0.00000000E+00
  0.00000000E+00  0.00000000E+00  0.00000000E+00
  0.00000000E+00  0.00000000E+00  0.00000000E+00
  0.00000000E+00  0.00000000E+00  0.00000000E+00
  0.00000000E+00  0.00000000E+00  0.00000000E+00
