Zn2 Ga2 N2 O2                           
   1.00000000000000     
     6.0008620492320137    0.2010765553420223    0.0125523379646478
     0.1951450611572844    5.0541558764784345   -0.7898004373191361
     0.0471278571214227   -0.7877120126373099    4.7448153116226219
   Zn   Ga   N    O 
     2     2     2     2
Direct
  0.7734823513158593  0.2685792708027115  0.0651288096688804
  0.0888936602479057  0.1193417259271798  0.6205518460237210
  0.2538851152128300  0.3667403700147775  0.1064923530474527
  0.5967195004516466  0.9025376277195420  0.1873730137605573
  0.9666567376171394  0.5695551277724337  0.3171604896113440
  0.8847398851057476  0.8135864469775784  0.4119187514681434
  0.5142788290239924  0.5371989788247190  0.0583439312974009
  0.3213439210248929  0.1224604519610545  0.3330308051224804
 
  0.00000000E+00  0.00000000E+00  0.00000000E+00
  0.00000000E+00  0.00000000E+00  0.00000000E+00
  0.00000000E+00  0.00000000E+00  0.00000000E+00
  0.00000000E+00  0.00000000E+00  0.00000000E+00
  0.00000000E+00  0.00000000E+00  0.00000000E+00
  0.00000000E+00  0.00000000E+00  0.00000000E+00
  0.00000000E+00  0.00000000E+00  0.00000000E+00
  0.00000000E+00  0.00000000E+00  0.00000000E+00
