Zn2 Ga2 N2 O2                           
   1.00000000000000     
     5.1273375422893332    1.2801972319064030   -0.8031180955076145
     1.0850945112410548    5.9978694845972829   -0.5511517068110314
    -0.6945766035014347   -0.7041101881890804    5.5709354339239976
   Zn   Ga   N    O 
     2     2     2     2
Direct
  0.7069313002440657  0.9020444158219703  0.4986570543792071
  0.9398204010151420  0.4996586886749854  0.8656439366146311
  0.1530507735815037  0.3970876354308291  0.3544024690334625
  0.6146141137859493  0.4088739835340343  0.2751479293013337
  0.8522605974169707  0.5738334724004609  0.5355249205769911
  0.5387288687759451  0.2136411509358635  0.4416886599614466
  0.8753404955398146  0.3189406106853312  0.0704011090443115
  0.2192534496406226  0.5859200425165236  0.1585339210886110
 
  0.00000000E+00  0.00000000E+00  0.00000000E+00
  0.00000000E+00  0.00000000E+00  0.00000000E+00
  0.00000000E+00  0.00000000E+00  0.00000000E+00
  0.00000000E+00  0.00000000E+00  0.00000000E+00
  0.00000000E+00  0.00000000E+00  0.00000000E+00
  0.00000000E+00  0.00000000E+00  0.00000000E+00
  0.00000000E+00  0.00000000E+00  0.00000000E+00
  0.00000000E+00  0.00000000E+00  0.00000000E+00
