Zn2 Ga2 N2 O2                           
   1.00000000000000     
     5.6743568384183387    0.0910100628886229    0.1046616504198142
     0.1004951806718489    5.1210663376231365   -0.0103844686010503
     0.0443080520798905   -0.0279227516070254    5.4373811249092823
   Zn   Ga   N    O 
     2     2     2     2
Direct
  0.2140902780153180  0.0388061091555550  0.3884099529497725
  0.7368895080777947  0.2647363395785796  0.8088873736966853
  0.9744511048774607  0.4565556718623674  0.3809488443725396
  0.6417562384269445  0.0493993101848605  0.3977927796696591
  0.2761614022030981  0.5712095252903883  0.8949812846459715
  0.2803583997883230  0.7893189969102736  0.8904001581235328
  0.7468556175229982  0.3063415412607621  0.1566131035645673
  0.9294374510880808  0.8236325057572260  0.3819665029772843
 
  0.00000000E+00  0.00000000E+00  0.00000000E+00
  0.00000000E+00  0.00000000E+00  0.00000000E+00
  0.00000000E+00  0.00000000E+00  0.00000000E+00
  0.00000000E+00  0.00000000E+00  0.00000000E+00
  0.00000000E+00  0.00000000E+00  0.00000000E+00
  0.00000000E+00  0.00000000E+00  0.00000000E+00
  0.00000000E+00  0.00000000E+00  0.00000000E+00
  0.00000000E+00  0.00000000E+00  0.00000000E+00
