Zn2 Ga2 N2 O2                           
   1.00000000000000     
     6.8444829884499372    0.9809131273294246    0.9093364949640205
     1.2993029825714981    5.2789103032500098    0.3474376232924297
     0.8904608911131608   -0.0174923838114263    5.0825893771739024
   Zn   Ga   N    O 
     2     2     2     2
Direct
  0.4851921500159800  0.2212663299526987  0.6859787614409123
  0.9485044947169649  0.0731636302572450  0.1308729909362429
  0.4865085445396055  0.6198777137063870  0.2856531265781204
  0.3372042930107602  0.8975447586148849  0.9185481430613894
 -0.0461628425362540  0.4549969548048281  0.6043344571121841
  0.9296019948197802  0.6683521638205714  0.6181567159294666
  0.4074481223296911  0.6154477255552294  0.6678952952742356
  0.6517032431034745  0.2493507232881517  0.2885605096674580
 
  0.00000000E+00  0.00000000E+00  0.00000000E+00
  0.00000000E+00  0.00000000E+00  0.00000000E+00
  0.00000000E+00  0.00000000E+00  0.00000000E+00
  0.00000000E+00  0.00000000E+00  0.00000000E+00
  0.00000000E+00  0.00000000E+00  0.00000000E+00
  0.00000000E+00  0.00000000E+00  0.00000000E+00
  0.00000000E+00  0.00000000E+00  0.00000000E+00
  0.00000000E+00  0.00000000E+00  0.00000000E+00
