Zn2 Ga2 N2 O2                           
   1.00000000000000     
     5.7106030139748238    0.4805707441407663   -0.1469448480002531
     0.3748337133424752    3.3172217016766035   -0.4081773868306974
    -0.1868788194481067   -0.5266465291116076    5.5840636664864283
   Zn   Ga   N    O 
     2     2     2     2
Direct
  0.9627932931168384  0.2354998518276988  0.2263710852619538
  0.5868918591309548  0.9763908594992583  0.4885135494271965
  0.4241330223931551  0.8371609466606265  0.9724833639539349
  0.0033103863288458  0.4409277681433387  0.6925821293532252
  0.0929413541523325  0.9846514208973852  0.8844885267829340
  0.6044605305842078  0.2036154005854939  0.1830126232688727
  0.6282097374766695  0.5541846820340842  0.7099183121002699
  0.3972598168170060  0.5675690703521042  0.2426304098516189
 
  0.00000000E+00  0.00000000E+00  0.00000000E+00
  0.00000000E+00  0.00000000E+00  0.00000000E+00
  0.00000000E+00  0.00000000E+00  0.00000000E+00
  0.00000000E+00  0.00000000E+00  0.00000000E+00
  0.00000000E+00  0.00000000E+00  0.00000000E+00
  0.00000000E+00  0.00000000E+00  0.00000000E+00
  0.00000000E+00  0.00000000E+00  0.00000000E+00
  0.00000000E+00  0.00000000E+00  0.00000000E+00
