Zn2 Ga2 N2 O2                           
   1.00000000000000     
     5.9761644635212869   -0.1753301429548828    0.0362644985918188
    -0.2374378553619409    4.9552786904347412    0.3783257940723166
     0.0243839553927514    0.2509889308878921    3.4549785112673792
   Zn   Ga   N    O 
     2     2     2     2
Direct
  0.2861847371481070  0.3153952407898589  0.4549488368214450
  0.5009154889153011  0.8784931398584174  0.4268188384119482
  0.9832230807422814  0.8560351745026601  0.0430912965122979
  0.5909842810462926  0.3627940422660976  0.9173223503569926
  0.9027085466130962  0.2704895203038410  0.0093862060400347
  0.0221923961825786  0.4473389516514892  0.1729951224798942
  0.1563596986999247  0.9061040574540592  0.5342376042242714
  0.6574317706524133  0.7633498731735816  0.9411997451531371
 
  0.00000000E+00  0.00000000E+00  0.00000000E+00
  0.00000000E+00  0.00000000E+00  0.00000000E+00
  0.00000000E+00  0.00000000E+00  0.00000000E+00
  0.00000000E+00  0.00000000E+00  0.00000000E+00
  0.00000000E+00  0.00000000E+00  0.00000000E+00
  0.00000000E+00  0.00000000E+00  0.00000000E+00
  0.00000000E+00  0.00000000E+00  0.00000000E+00
  0.00000000E+00  0.00000000E+00  0.00000000E+00
