Zn2 Ga2 N2 O2                           
   1.00000000000000     
     4.6799767704859816    0.5150488233618967    0.1828863615740494
    -0.4944767129007396    4.4463067411862598    0.1356388225539295
    -0.1624372749810586   -0.1583278534564085    4.5976711754338631
   Zn   Ga   N    O 
     2     2     2     2
Direct
  0.6374895599938040  0.7952400484851264  0.0000058196285130
  0.6374873044054260  0.2547428785837704  0.5000081326041691
  0.1374983117008593  0.7899316724731538  0.4999971525556115
  0.1374989385602789  0.2600686115202925  0.0000028651046499
  0.3743252773343475  0.0249995005978871  0.7499992810254209
  0.9006751080061368  0.0250090018943125  0.2499953139533526
  0.3653289240221353  0.5250006427398844  0.2499991509193688
  0.9096965759770279  0.5250076437055691  0.7499922842089147
 
  0.00000000E+00  0.00000000E+00  0.00000000E+00
  0.00000000E+00  0.00000000E+00  0.00000000E+00
  0.00000000E+00  0.00000000E+00  0.00000000E+00
  0.00000000E+00  0.00000000E+00  0.00000000E+00
  0.00000000E+00  0.00000000E+00  0.00000000E+00
  0.00000000E+00  0.00000000E+00  0.00000000E+00
  0.00000000E+00  0.00000000E+00  0.00000000E+00
  0.00000000E+00  0.00000000E+00  0.00000000E+00
