Zn4 Ga4 N4 O4                           
   1.00000000000000     
     5.8841378115053180   -0.0194582797233644   -0.0744084224574994
    -0.0118969749327947    6.2822751753167330    0.8318308332636399
    -0.0180100185335385    0.8429598137674926    5.6412586518678163
   Zn   Ga   N    O 
     4     4     4     4
Direct
  0.3020262530294292  0.1567712785088259  0.9373538964027993
  0.7569274092930423  0.4020255979702446  0.6661348639533238
  0.4872635265348462  0.9510389337870290  0.5349937510263595
  0.1777276180060617  0.6392252061251151  0.7047566706694154
  0.3391880998325324  0.4443500837685669  0.3095765830736290
  0.8227100211225414  0.9753394113456422  0.0595487222593159
  0.8173031260147220  0.4757713251606062  0.0618309938003790
  0.0285744776460532  0.0648870815343700  0.5539161485429174
  0.6488882988944823  0.5553451661760734  0.3287159084986830
  0.7345977438220993  0.0590493274247666  0.7261117819127989
  0.1336496722832946  0.6212986539047024  0.0615201504196377
  0.1803811326569772  0.3400733235479720  0.6220267336859890
  0.9465626019427806  0.1819058887079109  0.2111908459756149
  0.1243367898658588  0.8452029339506005  0.0899907640590427
  0.6516707068608129  0.7924682374234051  0.3115477298641926
  0.4481925221944527  0.1952475506641577  0.2207844558559220
 
  0.00000000E+00  0.00000000E+00  0.00000000E+00
  0.00000000E+00  0.00000000E+00  0.00000000E+00
  0.00000000E+00  0.00000000E+00  0.00000000E+00
  0.00000000E+00  0.00000000E+00  0.00000000E+00
  0.00000000E+00  0.00000000E+00  0.00000000E+00
  0.00000000E+00  0.00000000E+00  0.00000000E+00
  0.00000000E+00  0.00000000E+00  0.00000000E+00
  0.00000000E+00  0.00000000E+00  0.00000000E+00
  0.00000000E+00  0.00000000E+00  0.00000000E+00
  0.00000000E+00  0.00000000E+00  0.00000000E+00
  0.00000000E+00  0.00000000E+00  0.00000000E+00
  0.00000000E+00  0.00000000E+00  0.00000000E+00
  0.00000000E+00  0.00000000E+00  0.00000000E+00
  0.00000000E+00  0.00000000E+00  0.00000000E+00
  0.00000000E+00  0.00000000E+00  0.00000000E+00
  0.00000000E+00  0.00000000E+00  0.00000000E+00
