Zn2 Ga2 N2 O2                           
   1.00000000000000     
     5.6650455858835045    0.2205513125591732    0.0198823531339886
    -0.1261743294875772    3.2378802817976187    0.0349056093129820
    -0.0162953355095030   -0.0574618846375756    5.2804492497799576
   Zn   Ga   N    O 
     2     2     2     2
Direct
  0.4649806479698478  0.8874849821017200  0.0920235633332645
  0.1600193880043984  0.8874821814217914  0.5920217823582110
  0.6410662862642246  0.3875216287399041  0.6076546652199470
  0.9839338278940764  0.3875224662357260  0.1076532941307480
  0.4942018214585829  0.8875105367364521  0.7144653268560039
  0.1307976414639320  0.8875128306532825  0.2144642528284986
  0.9646709290666551  0.3874845594036143  0.7358581627008184
  0.6603294578782898  0.3874808147075255  0.2358589525725129
 
  0.00000000E+00  0.00000000E+00  0.00000000E+00
  0.00000000E+00  0.00000000E+00  0.00000000E+00
  0.00000000E+00  0.00000000E+00  0.00000000E+00
  0.00000000E+00  0.00000000E+00  0.00000000E+00
  0.00000000E+00  0.00000000E+00  0.00000000E+00
  0.00000000E+00  0.00000000E+00  0.00000000E+00
  0.00000000E+00  0.00000000E+00  0.00000000E+00
  0.00000000E+00  0.00000000E+00  0.00000000E+00
