Zn2 Ga2 N2 O2                           
   1.00000000000000     
     3.7684043489376187   -0.1545163164391895   -0.0642570971857041
    -0.5558168160862995    5.3355354165302966   -1.0757063596039305
    -0.3084382339000877   -1.5482319801079594    6.9575393008311623
   Zn   Ga   N    O 
     2     2     2     2
Direct
  0.5250825475580722  0.6576314132014384  0.3955121515065136
  0.9319814386427271  0.6558106775711451  0.9968907522336512
  0.9608571557326938  0.1544352504591223  0.1796824129897479
  0.6832761226742149  0.3018969709459824  0.6592597272195264
  0.9431964371090940  0.9722290172661626  0.5576458755049040
  0.2679561546464918  0.9722218567898085  0.5694822117816292
  0.1503753530361739  0.4762282916241887  0.1526202994762031
  0.6372747906005269  0.3095465221421507  0.3889065692878298
 
  0.00000000E+00  0.00000000E+00  0.00000000E+00
  0.00000000E+00  0.00000000E+00  0.00000000E+00
  0.00000000E+00  0.00000000E+00  0.00000000E+00
  0.00000000E+00  0.00000000E+00  0.00000000E+00
  0.00000000E+00  0.00000000E+00  0.00000000E+00
  0.00000000E+00  0.00000000E+00  0.00000000E+00
  0.00000000E+00  0.00000000E+00  0.00000000E+00
  0.00000000E+00  0.00000000E+00  0.00000000E+00
