Zn2 Ga2 N2 O2                           
   1.00000000000000     
     5.7328387363440765   -0.0096676228274176    0.0998023556774953
    -0.0691022196447347    5.1337734087524458    0.2805461763765704
     0.1480449488023914    0.1932408536527535    5.5822822238155609
   Zn   Ga   N    O 
     2     2     2     2
Direct
  0.6291289647355250  0.9601709241559409  0.1384524495485154
  0.0460318117260909  0.9888068828004607  0.0938853959172982
  0.2816062594519170  0.4107791666886176  0.1147959470461487
  0.5337480782525709  0.2369096128775263  0.6785939477771197
  0.9975140035122622  0.5333509875663999  0.6166038941419144
  0.9871229921465545  0.7509950022967103  0.6088861960186345
  0.4946328953861290  0.2449397118884259  0.3509753290843671
  0.3302149947889478  0.7740477117259240  0.0978068404660122
 
  0.00000000E+00  0.00000000E+00  0.00000000E+00
  0.00000000E+00  0.00000000E+00  0.00000000E+00
  0.00000000E+00  0.00000000E+00  0.00000000E+00
  0.00000000E+00  0.00000000E+00  0.00000000E+00
  0.00000000E+00  0.00000000E+00  0.00000000E+00
  0.00000000E+00  0.00000000E+00  0.00000000E+00
  0.00000000E+00  0.00000000E+00  0.00000000E+00
  0.00000000E+00  0.00000000E+00  0.00000000E+00
