Zn2 Ga2 N2 O2                           
   1.00000000000000     
     7.9145893856584655   -0.0836278913602756   -0.1534203831872696
    -0.1727122044487915    4.9389514427974248   -0.3171385728979592
    -0.3116431336795727   -0.3134525679649089    5.7449284477769105
   Zn   Ga   N    O 
     2     2     2     2
Direct
  0.5124717184588476  0.3749035659946092  0.8815233510910095
  0.6447372431271600  0.9823252768044547  0.6809317749165036
  0.4400712983432679  0.4050790661872944  0.4556694458836855
  0.5297995330652785  0.8417251206393505  0.0956300427399496
  0.0398547214670507  0.7014274167814228  0.8934427044612070
  0.0192821355210371  0.5738181693074753  0.0368488526174734
  0.5735452965749226  0.7325927115803764  0.4021062970146648
  0.4402380534424324  0.1881286727050133  0.1538475312755079
 
  0.00000000E+00  0.00000000E+00  0.00000000E+00
  0.00000000E+00  0.00000000E+00  0.00000000E+00
  0.00000000E+00  0.00000000E+00  0.00000000E+00
  0.00000000E+00  0.00000000E+00  0.00000000E+00
  0.00000000E+00  0.00000000E+00  0.00000000E+00
  0.00000000E+00  0.00000000E+00  0.00000000E+00
  0.00000000E+00  0.00000000E+00  0.00000000E+00
  0.00000000E+00  0.00000000E+00  0.00000000E+00
