Zn2 Ga2 N2 O2                           
   1.00000000000000     
     5.0485659574185675    0.0303092706518813   -0.0481132448765331
    -0.0272386962974526    4.0939963871285086   -0.2712333682728930
     0.0630109021351428    0.2270058488233135    6.9166271368694971
   Zn   Ga   N    O 
     2     2     2     2
Direct
  0.7844383983817439  0.4299857669904497  0.9921861271211131
  0.7845581463665902  0.4950077956801768  0.6577650464356434
  0.3287089575424900  0.4625085155692304  0.3249971832632782
  0.7811350969670217  0.9625047706048533  0.3249950466991097
  0.9813749704396937  0.3395782646779461  0.4161651552767254
  0.9813103259416451  0.5853949666635483  0.2338838200341527
  0.5292780761355869  0.7471090674495283  0.4853517479063570
  0.5291960282252235  0.1779108523642564  0.1646558732636151
 
  0.00000000E+00  0.00000000E+00  0.00000000E+00
  0.00000000E+00  0.00000000E+00  0.00000000E+00
  0.00000000E+00  0.00000000E+00  0.00000000E+00
  0.00000000E+00  0.00000000E+00  0.00000000E+00
  0.00000000E+00  0.00000000E+00  0.00000000E+00
  0.00000000E+00  0.00000000E+00  0.00000000E+00
  0.00000000E+00  0.00000000E+00  0.00000000E+00
  0.00000000E+00  0.00000000E+00  0.00000000E+00
