Zn2 Ga2 N2 O2                           
   1.00000000000000     
     5.4344235313202915    0.1475919639980716    0.9357975943814583
     0.1125758493343181    4.6394505132869170    0.2806349386238249
     0.9367114691728220    0.0439233644791839    4.6184739255977769
   Zn   Ga   N    O 
     2     2     2     2
Direct
  0.8132797859054353  0.1449287935922903  0.8239890662115745
  0.5292041020992214  0.6201178635597712  0.9667847089822021
  0.3848646663875950  0.9632095590197046  0.6097575237130991
  0.8951163962795905  0.6173607733931397  0.4173688656462342
  0.1811313061503707  0.4402794836659635  0.0594424460073728
  0.1400745560954660  0.2806236810103269  0.8848215349880135
  0.0839407648227939  0.8907788820357520  0.5191994359891737
  0.6723884222595153  0.8427009637230486  0.2186364184623218
 
  0.00000000E+00  0.00000000E+00  0.00000000E+00
  0.00000000E+00  0.00000000E+00  0.00000000E+00
  0.00000000E+00  0.00000000E+00  0.00000000E+00
  0.00000000E+00  0.00000000E+00  0.00000000E+00
  0.00000000E+00  0.00000000E+00  0.00000000E+00
  0.00000000E+00  0.00000000E+00  0.00000000E+00
  0.00000000E+00  0.00000000E+00  0.00000000E+00
  0.00000000E+00  0.00000000E+00  0.00000000E+00
