Zn2 Ga2 N2 O2                           
   1.00000000000000     
     4.9078352242227732   -0.5951479274528857    0.6577135317867571
    -0.5962108112772858    5.2048978665219101    0.1879101998337778
     0.4560336854871413    0.1624677333683328    6.3979814739533465
   Zn   Ga   N    O 
     2     2     2     2
Direct
  0.2923277210302063  0.1376911799888543  0.2584638522774251
  0.1672021769633973  0.2085887656465729  0.6412520409491399
  0.4659347320386674  0.5805605130110600  0.0161768316004180
  0.0208261142800897  0.7715103039893149  0.8795684838706418
  0.7784095880420597  0.4752972730096579  0.4952568321867060
  0.7866471066403600  0.6730641356482525  0.4163080011089028
  0.2651577390407962  0.8499682805132910  0.0841480731927137
  0.2234948219644163  0.5033195481930077  0.8088258848140808
 
  0.00000000E+00  0.00000000E+00  0.00000000E+00
  0.00000000E+00  0.00000000E+00  0.00000000E+00
  0.00000000E+00  0.00000000E+00  0.00000000E+00
  0.00000000E+00  0.00000000E+00  0.00000000E+00
  0.00000000E+00  0.00000000E+00  0.00000000E+00
  0.00000000E+00  0.00000000E+00  0.00000000E+00
  0.00000000E+00  0.00000000E+00  0.00000000E+00
  0.00000000E+00  0.00000000E+00  0.00000000E+00
