Zn2 Ga2 N2 O2                           
   1.00000000000000     
     5.4420514629521710   -0.2433950403412213    0.0075764773787799
    -0.4375951016309375    4.1006734053065443    0.6786507661787229
    -0.4797642762245872    0.1634796056193095    5.2594119761430047
   Zn   Ga   N    O 
     2     2     2     2
Direct
  0.2095316856317080  0.6372943076166638  0.1264023994770200
  0.7879746017647613  0.3105758199977722  0.1214159726991405
  0.5678048882658656  0.9238433123769295  0.6754326131486582
  0.9708477194612007  0.5891570103234106  0.5271293056160073
  0.7447048035869738  0.3114315405581164  0.7589014632471062
  0.7071246353724074  0.8870262628833682  0.3574719490586900
  0.5756261045902111  0.6685969013217262  0.1861982801043191
  0.2363855613268766  0.7720748449220141  0.7470480166490581
 
  0.00000000E+00  0.00000000E+00  0.00000000E+00
  0.00000000E+00  0.00000000E+00  0.00000000E+00
  0.00000000E+00  0.00000000E+00  0.00000000E+00
  0.00000000E+00  0.00000000E+00  0.00000000E+00
  0.00000000E+00  0.00000000E+00  0.00000000E+00
  0.00000000E+00  0.00000000E+00  0.00000000E+00
  0.00000000E+00  0.00000000E+00  0.00000000E+00
  0.00000000E+00  0.00000000E+00  0.00000000E+00
