Zn2 Ga2 N2 O2                           
   1.00000000000000     
     5.2931934832478635    0.3880666374013595   -0.2307463088457299
     0.4228364802099440    5.4485121547344662    0.9101030417560229
    -0.1842098506241838    0.9191946757543665    5.5383359799807224
   Zn   Ga   N    O 
     2     2     2     2
Direct
  0.9059190890997659  0.6440237399636940  0.6169381621046762
  0.3975593211676516  0.8672575115966373  0.8635724238913290
  0.4754538832821151  0.7167290719631189  0.3535143471010230
  0.9483335921337201  0.1446817449002615  0.7785705044656673
  0.2511903429372523  0.3253853383153402  0.2449942030665226
  0.0377669992359691  0.3507432849752542  0.2054937999104779
  0.2525437585762925  0.7287359089168445  0.5956149724646357
  0.7312330135672400  0.9224433993688385  0.7413015869956660
 
  0.00000000E+00  0.00000000E+00  0.00000000E+00
  0.00000000E+00  0.00000000E+00  0.00000000E+00
  0.00000000E+00  0.00000000E+00  0.00000000E+00
  0.00000000E+00  0.00000000E+00  0.00000000E+00
  0.00000000E+00  0.00000000E+00  0.00000000E+00
  0.00000000E+00  0.00000000E+00  0.00000000E+00
  0.00000000E+00  0.00000000E+00  0.00000000E+00
  0.00000000E+00  0.00000000E+00  0.00000000E+00
