Zn2 Ga2 N2 O2                           
   1.00000000000000     
     3.6998037171352611    0.5082290738786223    0.1251390230737367
     0.5526183856792565    5.8786214135220511    0.1312058772789328
     0.1776063307948637    0.1659025420457444    5.1525222423488479
   Zn   Ga   N    O 
     2     2     2     2
Direct
  0.9116270111874987  0.1305876283741161  0.4324746405094468
  0.5513442108665063  0.8184862703895952  0.7947760324079063
  0.1876232797576388  0.5754879371344768  0.3836199564028537
  0.3719463779350491  0.2285048422343071  0.9520003822278954
  0.0631288989795344  0.8245727014967470  0.6042351037021191
  0.9396125697709914  0.3998846062077052  0.1751331524324286
  0.3941490715998307  0.3031951680052399  0.5835166628657361
  0.5805685799029298  0.5192808461578097  0.0742440694516070
 
  0.00000000E+00  0.00000000E+00  0.00000000E+00
  0.00000000E+00  0.00000000E+00  0.00000000E+00
  0.00000000E+00  0.00000000E+00  0.00000000E+00
  0.00000000E+00  0.00000000E+00  0.00000000E+00
  0.00000000E+00  0.00000000E+00  0.00000000E+00
  0.00000000E+00  0.00000000E+00  0.00000000E+00
  0.00000000E+00  0.00000000E+00  0.00000000E+00
  0.00000000E+00  0.00000000E+00  0.00000000E+00
