Zn2 Ga2 N2 O2                           
   1.00000000000000     
     5.5998393966353719    0.9675393925061374   -0.5892310347631881
     0.6634808447203405    4.7447536239267336   -0.6119817677728296
    -0.7412216993668564   -0.9748616831201151    4.8425931925646530
   Zn   Ga   N    O 
     2     2     2     2
Direct
  0.5573883361259470  0.6147632202964723  0.2622428482049871
  0.7963176320216294  0.8092295478955642  0.8993884903441052
  0.1789164278705756  0.2199148722091177  0.9736631281967518
  0.5302016487982777  0.3471915452965033  0.5801127697154146
  0.8421340444788181  0.1568343656218084  0.8187573121877789
  0.8563499717403300  0.4716470681378995  0.0705358255928014
  0.4176674808395983  0.0389405801522549  0.2400436604945469
  0.3210244581248168  0.4414788003903746  0.8552559652636170
 
  0.00000000E+00  0.00000000E+00  0.00000000E+00
  0.00000000E+00  0.00000000E+00  0.00000000E+00
  0.00000000E+00  0.00000000E+00  0.00000000E+00
  0.00000000E+00  0.00000000E+00  0.00000000E+00
  0.00000000E+00  0.00000000E+00  0.00000000E+00
  0.00000000E+00  0.00000000E+00  0.00000000E+00
  0.00000000E+00  0.00000000E+00  0.00000000E+00
  0.00000000E+00  0.00000000E+00  0.00000000E+00
