Zn2 Ga2 N2 O2                           
   1.00000000000000     
     5.6248898984508129   -0.2445895496849148   -0.4835848876932144
     0.0841997285731373    3.1707607464595964   -0.6242118532370328
    -0.4500392664341735   -0.5395933087139247    5.5689783680473433
   Zn   Ga   N    O 
     2     2     2     2
Direct
  0.0310784688358646  0.3635656036357025  0.7271833366906210
  0.2834945052419413  0.1200671897858343  0.2401882818584837
  0.5516738036636814  0.8734654633548641  0.7468534224069557
  0.8043948993497754  0.6168515738824266  0.2337231115117908
  0.9697228539486419  0.1760173992127370  0.3520437455930814
  0.7175212357560323  0.4332379376112925  0.8664106334202987
  0.4960813448640112  0.6881001756828802  0.3762006302652496
  0.2460328883400393  0.9286946568342657  0.8573968382535321
 
  0.00000000E+00  0.00000000E+00  0.00000000E+00
  0.00000000E+00  0.00000000E+00  0.00000000E+00
  0.00000000E+00  0.00000000E+00  0.00000000E+00
  0.00000000E+00  0.00000000E+00  0.00000000E+00
  0.00000000E+00  0.00000000E+00  0.00000000E+00
  0.00000000E+00  0.00000000E+00  0.00000000E+00
  0.00000000E+00  0.00000000E+00  0.00000000E+00
  0.00000000E+00  0.00000000E+00  0.00000000E+00
