Zn2 Ga2 N2 O2                           
   1.00000000000000     
     5.6611177072612211    0.0035468657302071    0.1274647648965213
     0.0779012142157040    5.1608425980077151   -0.0144647648683387
     0.1330984112313786   -0.0695446676098277    5.4433023205763291
   Zn   Ga   N    O 
     2     2     2     2
Direct
  0.9006857305497556  0.2386761146752350  0.1535646741298234
  0.4333927209449538  0.4551521155924236  0.5754764081068561
  0.3304570449381821  0.2449565780471247  0.1687096492703513
  0.6682717295224876  0.6572571443497729  0.1355963434147103
  0.9127674482509385  0.8152119933643313  0.6674034519521743
  0.1001508446248020  0.8726894916697556  0.6280688441034614
  0.4385429388240104  0.4960196113987214  0.9233887860091964
  0.6157315423448827  0.0200369509026247  0.1477918430134329
 
  0.00000000E+00  0.00000000E+00  0.00000000E+00
  0.00000000E+00  0.00000000E+00  0.00000000E+00
  0.00000000E+00  0.00000000E+00  0.00000000E+00
  0.00000000E+00  0.00000000E+00  0.00000000E+00
  0.00000000E+00  0.00000000E+00  0.00000000E+00
  0.00000000E+00  0.00000000E+00  0.00000000E+00
  0.00000000E+00  0.00000000E+00  0.00000000E+00
  0.00000000E+00  0.00000000E+00  0.00000000E+00
