Zn2 Ga2 N2 O2                           
   1.00000000000000     
     3.0830854663248974    0.0788575643077684    0.1785415196432594
    -0.1337126140609458    4.8726307756697498    0.2785861893583099
    -0.5372434924946800    1.1725339189556059    8.6223834354743314
   Zn   Ga   N    O 
     2     2     2     2
Direct
  0.2695476204648795  0.9066755670778756  0.5021160301746312
  0.2741553988446319 -0.0944023119765166 -0.0322363209599553
  0.7822232238022443  0.3581092569425062  0.1342967045462772
  0.7787153891026264  0.6842829323267118  0.3206641139591440
  0.7692952736553681 -0.0063013675290242  0.7925006838501700
  0.7689207144028275 -0.0017806311278778  0.6552320725873170
  0.7765631888191714 -0.0276309868347920  0.1183849863327439
  0.2805791909082590  0.4810475411211071  0.0090417295096731
 
  0.00000000E+00  0.00000000E+00  0.00000000E+00
  0.00000000E+00  0.00000000E+00  0.00000000E+00
  0.00000000E+00  0.00000000E+00  0.00000000E+00
  0.00000000E+00  0.00000000E+00  0.00000000E+00
  0.00000000E+00  0.00000000E+00  0.00000000E+00
  0.00000000E+00  0.00000000E+00  0.00000000E+00
  0.00000000E+00  0.00000000E+00  0.00000000E+00
  0.00000000E+00  0.00000000E+00  0.00000000E+00
