Zn2 Ga2 N2 O2                           
   1.00000000000000     
     5.0855385387297964    1.5129054944832527    1.0077298615666650
     1.1125442376770205    5.1524568408045699   -0.7531967427781161
     0.8541933664785214   -1.0178004844906954    5.2761453623377994
   Zn   Ga   N    O 
     2     2     2     2
Direct
  0.8874340308837614  0.6314401470890276  0.0785218920134108
  0.5900409653038410  0.8953457595904465  0.7020169298869295
  0.2315582844797767  0.9269969175774188  0.3741409857064667
  0.3371872909824843  0.3831689645015862  0.3770944907892165
  0.4982541386436208  0.9663609767565084  0.0925629233915900
  0.9973436815162319  0.7504814419867032  0.3911546513007232
  0.5600530547821647  0.5744500522871310  0.4011918385832611
  0.1981285534081165  0.2717557402111911  0.6833162883283959
 
  0.00000000E+00  0.00000000E+00  0.00000000E+00
  0.00000000E+00  0.00000000E+00  0.00000000E+00
  0.00000000E+00  0.00000000E+00  0.00000000E+00
  0.00000000E+00  0.00000000E+00  0.00000000E+00
  0.00000000E+00  0.00000000E+00  0.00000000E+00
  0.00000000E+00  0.00000000E+00  0.00000000E+00
  0.00000000E+00  0.00000000E+00  0.00000000E+00
  0.00000000E+00  0.00000000E+00  0.00000000E+00
