Zn2 Ga2 N2 O2                           
   1.00000000000000     
     4.7946185821294440    0.1183177376351406   -1.0430536734627607
     0.1774602809458761    4.9139699457714361    0.1670146010784105
    -0.9673722273739860    0.2316847043178754    5.4403212700561188
   Zn   Ga   N    O 
     2     2     2     2
Direct
  0.0105760395222206  0.7982513936231870  0.7326261276778788
  0.2403372901723320  0.5632888023500473  0.2221475465781328
  0.5425736360720850  0.9064361462854528  0.0525108236354567
  0.5314481638795974  0.3496232503866671  0.7952461884715296
  0.5715519851735257  0.2455091345183719  0.4514442727758851
  0.7078985916818354  0.0383940377140390  0.4259439584821884
  0.1984727821712101  0.5700036826402086  0.5613063084113369
  0.7971415113271944  0.6284935524820350  0.9587747739675951
 
  0.00000000E+00  0.00000000E+00  0.00000000E+00
  0.00000000E+00  0.00000000E+00  0.00000000E+00
  0.00000000E+00  0.00000000E+00  0.00000000E+00
  0.00000000E+00  0.00000000E+00  0.00000000E+00
  0.00000000E+00  0.00000000E+00  0.00000000E+00
  0.00000000E+00  0.00000000E+00  0.00000000E+00
  0.00000000E+00  0.00000000E+00  0.00000000E+00
  0.00000000E+00  0.00000000E+00  0.00000000E+00
