Zn2 Ga2 N2 O2                           
   1.00000000000000     
     5.7207022347059713   -0.0611969644486186   -0.1466283044198566
     0.0056678614385575    5.2846000829706652   -0.2194342918868357
    -0.3554369054908684    0.0312138425248167    3.4672828389209407
   Zn   Ga   N    O 
     2     2     2     2
Direct
  0.5859353820970987  0.2138022299324972  0.4081088249092422
  0.0777811625965421  0.3845029831308605  0.0618037500317462
  0.6643727034714553  0.7517433606876880  0.9274172554096259
  0.1042092050210003  0.8060468039558367  0.4192059206329939
  0.7725066194812310  0.8850284248473069  0.4581164672483421
  0.2630741485697920  0.0730655685681071  0.1498297371221659
  0.3438013499019122  0.8911544740309151  0.8563464904622423
  0.6883194288609762  0.3946561548467876  0.9191715541836368
 
  0.00000000E+00  0.00000000E+00  0.00000000E+00
  0.00000000E+00  0.00000000E+00  0.00000000E+00
  0.00000000E+00  0.00000000E+00  0.00000000E+00
  0.00000000E+00  0.00000000E+00  0.00000000E+00
  0.00000000E+00  0.00000000E+00  0.00000000E+00
  0.00000000E+00  0.00000000E+00  0.00000000E+00
  0.00000000E+00  0.00000000E+00  0.00000000E+00
  0.00000000E+00  0.00000000E+00  0.00000000E+00
