Zn2 Ga2 N2 O2                           
   1.00000000000000     
     4.0191482047601532    0.5899559787580094   -0.0828000631808282
     2.0315452377015553    4.9993266287577569   -0.3249013447662907
     0.4219907258981719    0.1789155880001348    6.0614367367146968
   Zn   Ga   N    O 
     2     2     2     2
Direct
  0.9886088633049661  0.4874536237895308  0.6068751310644390
  0.6736671348470078  0.9582530194124023  0.8172102682001342
  0.6096192706729081  0.0054828857990885  0.2788980501685015
  0.6986085076531546  0.5224148857877515  0.0363036160401383
  0.2966858798864210  0.9539668397657814  0.0667613210085896
  0.8875964751320345  0.1028587581252943  0.0516593052936944
  0.5193309655554879  0.1768835310385501  0.5551485549331595
  0.9258829029480137  0.5926864562815983  0.2871437532913393
 
  0.00000000E+00  0.00000000E+00  0.00000000E+00
  0.00000000E+00  0.00000000E+00  0.00000000E+00
  0.00000000E+00  0.00000000E+00  0.00000000E+00
  0.00000000E+00  0.00000000E+00  0.00000000E+00
  0.00000000E+00  0.00000000E+00  0.00000000E+00
  0.00000000E+00  0.00000000E+00  0.00000000E+00
  0.00000000E+00  0.00000000E+00  0.00000000E+00
  0.00000000E+00  0.00000000E+00  0.00000000E+00
