Automatically generated mesh
330
Reciprocal lattice
  0.0000   0.0000   0.0000  0.0030  ! $\Gamma$    
  0.0064   0.0064   0.0000  0.0030  !             
  0.0128   0.0128   0.0000  0.0030  !             
  0.0191   0.0191   0.0000  0.0030  !             
  0.0255   0.0255   0.0000  0.0030  !             
  0.0319   0.0319   0.0000  0.0030  !             
  0.0383   0.0383   0.0000  0.0030  !             
  0.0447   0.0447   0.0000  0.0030  !             
  0.0510   0.0510   0.0000  0.0030  !             
  0.0574   0.0574   0.0000  0.0030  !             
  0.0638   0.0638   0.0000  0.0030  !             
  0.0702   0.0702   0.0000  0.0030  !             
  0.0766   0.0766   0.0000  0.0030  !             
  0.0830   0.0830   0.0000  0.0030  !             
  0.0893   0.0893   0.0000  0.0030  !             
  0.0957   0.0957   0.0000  0.0030  !             
  0.1021   0.1021   0.0000  0.0030  !             
  0.1085   0.1085   0.0000  0.0030  !             
  0.1149   0.1149   0.0000  0.0030  !             
  0.1212   0.1212   0.0000  0.0030  !             
  0.1276   0.1276   0.0000  0.0030  !             
  0.1340   0.1340   0.0000  0.0030  !             
  0.1404   0.1404   0.0000  0.0030  !             
  0.1468   0.1468   0.0000  0.0030  !             
  0.1531   0.1531   0.0000  0.0030  !             
  0.1595   0.1595   0.0000  0.0030  !             
  0.1659   0.1659   0.0000  0.0030  !             
  0.1723   0.1723   0.0000  0.0030  !             
  0.1787   0.1787   0.0000  0.0030  !             
  0.1851   0.1851   0.0000  0.0030  !             
  0.1914   0.1914   0.0000  0.0030  !             
  0.1978   0.1978   0.0000  0.0030  !             
  0.2042   0.2042   0.0000  0.0030  !             
  0.2106   0.2106   0.0000  0.0030  !             
  0.2170   0.2170   0.0000  0.0030  !             
  0.2233   0.2233   0.0000  0.0030  !             
  0.2297   0.2297   0.0000  0.0030  !             
  0.2361   0.2361   0.0000  0.0030  !             
  0.2425   0.2425   0.0000  0.0030  !             
  0.2489   0.2489   0.0000  0.0030  !             
  0.2552   0.2552   0.0000  0.0030  !             
  0.2616   0.2616   0.0000  0.0030  !             
  0.2680   0.2680   0.0000  0.0030  ! $C$         
 -0.2680   0.7320  -0.0000  0.0030  ! $C_2$       
 -0.2743   0.7257  -0.0000  0.0030  !             
 -0.2805   0.7195  -0.0000  0.0030  !             
 -0.2868   0.7132  -0.0000  0.0030  !             
 -0.2931   0.7069  -0.0000  0.0030  !             
 -0.2994   0.7006  -0.0000  0.0030  !             
 -0.3056   0.6944  -0.0000  0.0030  !             
 -0.3119   0.6881  -0.0000  0.0030  !             
 -0.3182   0.6818  -0.0000  0.0030  !             
 -0.3244   0.6756  -0.0000  0.0030  !             
 -0.3307   0.6693  -0.0000  0.0030  !             
 -0.3370   0.6630  -0.0000  0.0030  !             
 -0.3432   0.6568  -0.0000  0.0030  !             
 -0.3495   0.6505  -0.0000  0.0030  !             
 -0.3558   0.6442  -0.0000  0.0030  !             
 -0.3621   0.6379  -0.0000  0.0030  !             
 -0.3683   0.6317  -0.0000  0.0030  !             
 -0.3746   0.6254  -0.0000  0.0030  !             
 -0.3809   0.6191  -0.0000  0.0030  !             
 -0.3871   0.6129  -0.0000  0.0030  !             
 -0.3934   0.6066  -0.0000  0.0030  !             
 -0.3997   0.6003  -0.0000  0.0030  !             
 -0.4059   0.5941  -0.0000  0.0030  !             
 -0.4122   0.5878  -0.0000  0.0030  !             
 -0.4185   0.5815  -0.0000  0.0030  !             
 -0.4248   0.5752  -0.0000  0.0030  !             
 -0.4310   0.5690  -0.0000  0.0030  !             
 -0.4373   0.5627  -0.0000  0.0030  !             
 -0.4436   0.5564  -0.0000  0.0030  !             
 -0.4498   0.5502  -0.0000  0.0030  !             
 -0.4561   0.5439  -0.0000  0.0030  !             
 -0.4624   0.5376  -0.0000  0.0030  !             
 -0.4686   0.5314  -0.0000  0.0030  !             
 -0.4749   0.5251  -0.0000  0.0030  !             
 -0.4812   0.5188  -0.0000  0.0030  !             
 -0.4875   0.5125  -0.0000  0.0030  !             
 -0.4937   0.5063  -0.0000  0.0030  !             
 -0.5000   0.5000  -0.0000  0.0030  ! $Y_2$       
 -0.5000   0.5000  -0.0000  0.0030  ! $Y_2$       
 -0.4762   0.4762  -0.0000  0.0030  !             
 -0.4524   0.4524  -0.0000  0.0030  !             
 -0.4286   0.4286  -0.0000  0.0030  !             
 -0.4048   0.4048   0.0000  0.0030  !             
 -0.3810   0.3810  -0.0000  0.0030  !             
 -0.3571   0.3571   0.0000  0.0030  !             
 -0.3333   0.3333   0.0000  0.0030  !             
 -0.3095   0.3095  -0.0000  0.0030  !             
 -0.2857   0.2857  -0.0000  0.0030  !             
 -0.2619   0.2619   0.0000  0.0030  !             
 -0.2381   0.2381   0.0000  0.0030  !             
 -0.2143   0.2143   0.0000  0.0030  !             
 -0.1905   0.1905   0.0000  0.0030  !             
 -0.1667   0.1667   0.0000  0.0030  !             
 -0.1429   0.1429   0.0000  0.0030  !             
 -0.1190   0.1190  -0.0000  0.0030  !             
 -0.0952   0.0952  -0.0000  0.0030  !             
 -0.0714   0.0714  -0.0000  0.0030  !             
 -0.0476   0.0476  -0.0000  0.0030  !             
 -0.0238   0.0238  -0.0000  0.0030  !             
  0.0000   0.0000   0.0000  0.0030  ! $\Gamma$    
  0.0000   0.0000   0.0000  0.0030  ! $\Gamma$    
 -0.0167   0.0167   0.0167  0.0030  !             
 -0.0333   0.0333   0.0333  0.0030  !             
 -0.0500   0.0500   0.0500  0.0030  !             
 -0.0667   0.0667   0.0667  0.0030  !             
 -0.0833   0.0833   0.0833  0.0030  !             
 -0.1000   0.1000   0.1000  0.0030  !             
 -0.1167   0.1167   0.1167  0.0030  !             
 -0.1333   0.1333   0.1333  0.0030  !             
 -0.1500   0.1500   0.1500  0.0030  !             
 -0.1667   0.1667   0.1667  0.0030  !             
 -0.1833   0.1833   0.1833  0.0030  !             
 -0.2000   0.2000   0.2000  0.0030  !             
 -0.2167   0.2167   0.2167  0.0030  !             
 -0.2333   0.2333   0.2333  0.0030  !             
 -0.2500   0.2500   0.2500  0.0030  !             
 -0.2667   0.2667   0.2667  0.0030  !             
 -0.2833   0.2833   0.2833  0.0030  !             
 -0.3000   0.3000   0.3000  0.0030  !             
 -0.3167   0.3167   0.3167  0.0030  !             
 -0.3333   0.3333   0.3333  0.0030  !             
 -0.3500   0.3500   0.3500  0.0030  !             
 -0.3667   0.3667   0.3667  0.0030  !             
 -0.3833   0.3833   0.3833  0.0030  !             
 -0.4000   0.4000   0.4000  0.0030  !             
 -0.4167   0.4167   0.4167  0.0030  !             
 -0.4333   0.4333   0.4333  0.0030  !             
 -0.4500   0.4500   0.4500  0.0030  !             
 -0.4667   0.4667   0.4667  0.0030  !             
 -0.4833   0.4833   0.4833  0.0030  !             
 -0.5000   0.5000   0.5000  0.0030  ! $M_2$       
 -0.5000   0.5000   0.5000  0.0030  ! $M_2$       
 -0.4936   0.5064   0.5000  0.0030  !             
 -0.4872   0.5128   0.5000  0.0030  !             
 -0.4808   0.5192   0.5000  0.0030  !             
 -0.4744   0.5256   0.5000  0.0030  !             
 -0.4680   0.5320   0.5000  0.0030  !             
 -0.4616   0.5384   0.5000  0.0030  !             
 -0.4552   0.5448   0.5000  0.0030  !             
 -0.4488   0.5512   0.5000  0.0030  !             
 -0.4424   0.5576   0.5000  0.0030  !             
 -0.4360   0.5640   0.5000  0.0030  !             
 -0.4296   0.5704   0.5000  0.0030  !             
 -0.4232   0.5768   0.5000  0.0030  !             
 -0.4168   0.5832   0.5000  0.0030  !             
 -0.4104   0.5896   0.5000  0.0030  !             
 -0.4039   0.5961   0.5000  0.0030  !             
 -0.3975   0.6025   0.5000  0.0030  !             
 -0.3911   0.6089   0.5000  0.0030  !             
 -0.3847   0.6153   0.5000  0.0030  !             
 -0.3783   0.6217   0.5000  0.0030  !             
 -0.3719   0.6281   0.5000  0.0030  !             
 -0.3655   0.6345   0.5000  0.0030  !             
 -0.3591   0.6409   0.5000  0.0030  !             
 -0.3527   0.6473   0.5000  0.0030  !             
 -0.3463   0.6537   0.5000  0.0030  !             
 -0.3399   0.6601   0.5000  0.0030  !             
 -0.3335   0.6665   0.5000  0.0030  !             
 -0.3271   0.6729   0.5000  0.0030  !             
 -0.3207   0.6793   0.5000  0.0030  !             
 -0.3143   0.6857   0.5000  0.0030  !             
 -0.3079   0.6921   0.5000  0.0030  !             
 -0.3015   0.6985   0.5000  0.0030  !             
 -0.2951   0.7049   0.5000  0.0030  !             
 -0.2887   0.7113   0.5000  0.0030  !             
 -0.2823   0.7177   0.5000  0.0030  !             
 -0.2759   0.7241   0.5000  0.0030  !             
 -0.2695   0.7305   0.5000  0.0030  !             
 -0.2631   0.7369   0.5000  0.0030  ! $D$         
  0.2631   0.2631   0.5000  0.0030  ! $D_2$       
  0.2568   0.2568   0.5000  0.0030  !             
  0.2505   0.2505   0.5000  0.0030  !             
  0.2443   0.2443   0.5000  0.0030  !             
  0.2380   0.2380   0.5000  0.0030  !             
  0.2318   0.2318   0.5000  0.0030  !             
  0.2255   0.2255   0.5000  0.0030  !             
  0.2192   0.2192   0.5000  0.0030  !             
  0.2130   0.2130   0.5000  0.0030  !             
  0.2067   0.2067   0.5000  0.0030  !             
  0.2004   0.2004   0.5000  0.0030  !             
  0.1942   0.1942   0.5000  0.0030  !             
  0.1879   0.1879   0.5000  0.0030  !             
  0.1816   0.1816   0.5000  0.0030  !             
  0.1754   0.1754   0.5000  0.0030  !             
  0.1691   0.1691   0.5000  0.0030  !             
  0.1629   0.1629   0.5000  0.0030  !             
  0.1566   0.1566   0.5000  0.0030  !             
  0.1503   0.1503   0.5000  0.0030  !             
  0.1441   0.1441   0.5000  0.0030  !             
  0.1378   0.1378   0.5000  0.0030  !             
  0.1315   0.1315   0.5000  0.0030  !             
  0.1253   0.1253   0.5000  0.0030  !             
  0.1190   0.1190   0.5000  0.0030  !             
  0.1127   0.1127   0.5000  0.0030  !             
  0.1065   0.1065   0.5000  0.0030  !             
  0.1002   0.1002   0.5000  0.0030  !             
  0.0940   0.0940   0.5000  0.0030  !             
  0.0877   0.0877   0.5000  0.0030  !             
  0.0814   0.0814   0.5000  0.0030  !             
  0.0752   0.0752   0.5000  0.0030  !             
  0.0689   0.0689   0.5000  0.0030  !             
  0.0626   0.0626   0.5000  0.0030  !             
  0.0564   0.0564   0.5000  0.0030  !             
  0.0501   0.0501   0.5000  0.0030  !             
  0.0438   0.0438   0.5000  0.0030  !             
  0.0376   0.0376   0.5000  0.0030  !             
  0.0313   0.0313   0.5000  0.0030  !             
  0.0251   0.0251   0.5000  0.0030  !             
  0.0188   0.0188   0.5000  0.0030  !             
  0.0125   0.0125   0.5000  0.0030  !             
  0.0063   0.0063   0.5000  0.0030  !             
  0.0000   0.0000   0.5000  0.0030  ! $A$         
  0.0000   0.0000   0.5000  0.0030  ! $A$         
  0.0000   0.0000   0.4792  0.0030  !             
  0.0000   0.0000   0.4583  0.0030  !             
  0.0000   0.0000   0.4375  0.0030  !             
  0.0000   0.0000   0.4167  0.0030  !             
  0.0000   0.0000   0.3958  0.0030  !             
  0.0000   0.0000   0.3750  0.0030  !             
  0.0000   0.0000   0.3542  0.0030  !             
  0.0000   0.0000   0.3333  0.0030  !             
  0.0000   0.0000   0.3125  0.0030  !             
  0.0000   0.0000   0.2917  0.0030  !             
  0.0000   0.0000   0.2708  0.0030  !             
  0.0000   0.0000   0.2500  0.0030  !             
  0.0000   0.0000   0.2292  0.0030  !             
  0.0000   0.0000   0.2083  0.0030  !             
  0.0000   0.0000   0.1875  0.0030  !             
  0.0000   0.0000   0.1667  0.0030  !             
  0.0000   0.0000   0.1458  0.0030  !             
  0.0000   0.0000   0.1250  0.0030  !             
  0.0000   0.0000   0.1042  0.0030  !             
  0.0000   0.0000   0.0833  0.0030  !             
  0.0000   0.0000   0.0625  0.0030  !             
  0.0000   0.0000   0.0417  0.0030  !             
  0.0000   0.0000   0.0208  0.0030  !             
  0.0000   0.0000   0.0000  0.0030  ! $\Gamma$    
  0.0000   0.5000   0.5000  0.0030  ! $L_2$       
  0.0000   0.4894   0.4894  0.0030  !             
 -0.0000   0.4787   0.4787  0.0030  !             
  0.0000   0.4681   0.4681  0.0030  !             
  0.0000   0.4574   0.4574  0.0030  !             
 -0.0000   0.4468   0.4468  0.0030  !             
  0.0000   0.4362   0.4362  0.0030  !             
 -0.0000   0.4255   0.4255  0.0030  !             
  0.0000   0.4149   0.4149  0.0030  !             
 -0.0000   0.4043   0.4043  0.0030  !             
 -0.0000   0.3936   0.3936  0.0030  !             
 -0.0000   0.3830   0.3830  0.0030  !             
  0.0000   0.3723   0.3723  0.0030  !             
  0.0000   0.3617   0.3617  0.0030  !             
  0.0000   0.3511   0.3511  0.0030  !             
 -0.0000   0.3404   0.3404  0.0030  !             
  0.0000   0.3298   0.3298  0.0030  !             
  0.0000   0.3191   0.3191  0.0030  !             
 -0.0000   0.3085   0.3085  0.0030  !             
 -0.0000   0.2979   0.2979  0.0030  !             
 -0.0000   0.2872   0.2872  0.0030  !             
 -0.0000   0.2766   0.2766  0.0030  !             
 -0.0000   0.2660   0.2660  0.0030  !             
  0.0000   0.2553   0.2553  0.0030  !             
  0.0000   0.2447   0.2447  0.0030  !             
 -0.0000   0.2340   0.2340  0.0030  !             
  0.0000   0.2234   0.2234  0.0030  !             
 -0.0000   0.2128   0.2128  0.0030  !             
 -0.0000   0.2021   0.2021  0.0030  !             
 -0.0000   0.1915   0.1915  0.0030  !             
 -0.0000   0.1809   0.1809  0.0030  !             
 -0.0000   0.1702   0.1702  0.0030  !             
  0.0000   0.1596   0.1596  0.0030  !             
  0.0000   0.1489   0.1489  0.0030  !             
  0.0000   0.1383   0.1383  0.0030  !             
  0.0000   0.1277   0.1277  0.0030  !             
 -0.0000   0.1170   0.1170  0.0030  !             
 -0.0000   0.1064   0.1064  0.0030  !             
 -0.0000   0.0957   0.0957  0.0030  !             
  0.0000   0.0851   0.0851  0.0030  !             
 -0.0000   0.0745   0.0745  0.0030  !             
  0.0000   0.0638   0.0638  0.0030  !             
  0.0000   0.0532   0.0532  0.0030  !             
  0.0000   0.0426   0.0426  0.0030  !             
 -0.0000   0.0319   0.0319  0.0030  !             
 -0.0000   0.0213   0.0213  0.0030  !             
  0.0000   0.0106   0.0106  0.0030  !             
  0.0000   0.0000   0.0000  0.0030  ! $\Gamma$    
  0.0000   0.0000   0.0000  0.0030  ! $\Gamma$    
  0.0000   0.0122  -0.0000  0.0030  !             
  0.0000   0.0244  -0.0000  0.0030  !             
 -0.0000   0.0366  -0.0000  0.0030  !             
  0.0000   0.0488  -0.0000  0.0030  !             
 -0.0000   0.0610   0.0000  0.0030  !             
 -0.0000   0.0732  -0.0000  0.0030  !             
 -0.0000   0.0854  -0.0000  0.0030  !             
  0.0000   0.0976  -0.0000  0.0030  !             
  0.0000   0.1098  -0.0000  0.0030  !             
 -0.0000   0.1220   0.0000  0.0030  !             
 -0.0000   0.1341   0.0000  0.0030  !             
 -0.0000   0.1463  -0.0000  0.0030  !             
  0.0000   0.1585  -0.0000  0.0030  !             
 -0.0000   0.1707  -0.0000  0.0030  !             
 -0.0000   0.1829   0.0000  0.0030  !             
  0.0000   0.1951  -0.0000  0.0030  !             
 -0.0000   0.2073  -0.0000  0.0030  !             
  0.0000   0.2195  -0.0000  0.0030  !             
  0.0000   0.2317  -0.0000  0.0030  !             
 -0.0000   0.2439   0.0000  0.0030  !             
  0.0000   0.2561  -0.0000  0.0030  !             
 -0.0000   0.2683   0.0000  0.0030  !             
  0.0000   0.2805  -0.0000  0.0030  !             
 -0.0000   0.2927  -0.0000  0.0030  !             
 -0.0000   0.3049   0.0000  0.0030  !             
  0.0000   0.3171  -0.0000  0.0030  !             
 -0.0000   0.3293   0.0000  0.0030  !             
 -0.0000   0.3415  -0.0000  0.0030  !             
  0.0000   0.3537  -0.0000  0.0030  !             
 -0.0000   0.3659   0.0000  0.0030  !             
 -0.0000   0.3780   0.0000  0.0030  !             
  0.0000   0.3902  -0.0000  0.0030  !             
  0.0000   0.4024  -0.0000  0.0030  !             
 -0.0000   0.4146  -0.0000  0.0030  !             
  0.0000   0.4268  -0.0000  0.0030  !             
  0.0000   0.4390  -0.0000  0.0030  !             
 -0.0000   0.4512  -0.0000  0.0030  !             
  0.0000   0.4634  -0.0000  0.0030  !             
  0.0000   0.4756  -0.0000  0.0030  !             
 -0.0000   0.4878   0.0000  0.0030  !             
  0.0000   0.5000  -0.0000  0.0030  ! $V_2$       