Automatically generated mesh
240
Reciprocal lattice
  0.0000   0.0000   0.0000  0.0042  ! $\Gamma$    
  0.0185   0.0000   0.0000  0.0042  !             
  0.0370   0.0000   0.0000  0.0042  !             
  0.0556   0.0000   0.0000  0.0042  !             
  0.0741   0.0000   0.0000  0.0042  !             
  0.0926   0.0000   0.0000  0.0042  !             
  0.1111   0.0000   0.0000  0.0042  !             
  0.1296   0.0000   0.0000  0.0042  !             
  0.1481   0.0000   0.0000  0.0042  !             
  0.1667   0.0000   0.0000  0.0042  !             
  0.1852   0.0000   0.0000  0.0042  !             
  0.2037   0.0000   0.0000  0.0042  !             
  0.2222   0.0000   0.0000  0.0042  !             
  0.2407   0.0000   0.0000  0.0042  !             
  0.2593   0.0000   0.0000  0.0042  !             
  0.2778   0.0000   0.0000  0.0042  !             
  0.2963   0.0000   0.0000  0.0042  !             
  0.3148   0.0000   0.0000  0.0042  !             
  0.3333   0.0000   0.0000  0.0042  !             
  0.3519   0.0000   0.0000  0.0042  !             
  0.3704   0.0000   0.0000  0.0042  !             
  0.3889   0.0000   0.0000  0.0042  !             
  0.4074   0.0000   0.0000  0.0042  !             
  0.4259   0.0000   0.0000  0.0042  !             
  0.4444   0.0000   0.0000  0.0042  !             
  0.4630   0.0000   0.0000  0.0042  !             
  0.4815   0.0000   0.0000  0.0042  !             
  0.5000   0.0000   0.0000  0.0042  ! $X$         
 -0.0000   0.5000   0.0000  0.0042  ! $Y$         
 -0.0000   0.4815   0.0000  0.0042  !             
 -0.0000   0.4630   0.0000  0.0042  !             
 -0.0000   0.4444   0.0000  0.0042  !             
 -0.0000   0.4259   0.0000  0.0042  !             
 -0.0000   0.4074   0.0000  0.0042  !             
 -0.0000   0.3889   0.0000  0.0042  !             
 -0.0000   0.3704   0.0000  0.0042  !             
 -0.0000   0.3519   0.0000  0.0042  !             
 -0.0000   0.3333   0.0000  0.0042  !             
  0.0000   0.3148   0.0000  0.0042  !             
 -0.0000   0.2963   0.0000  0.0042  !             
 -0.0000   0.2778   0.0000  0.0042  !             
 -0.0000   0.2593   0.0000  0.0042  !             
 -0.0000   0.2407   0.0000  0.0042  !             
 -0.0000   0.2222   0.0000  0.0042  !             
 -0.0000   0.2037   0.0000  0.0042  !             
 -0.0000   0.1852   0.0000  0.0042  !             
 -0.0000   0.1667   0.0000  0.0042  !             
 -0.0000   0.1481   0.0000  0.0042  !             
  0.0000   0.1296   0.0000  0.0042  !             
 -0.0000   0.1111   0.0000  0.0042  !             
 -0.0000   0.0926   0.0000  0.0042  !             
  0.0000   0.0741   0.0000  0.0042  !             
  0.0000   0.0556   0.0000  0.0042  !             
 -0.0000   0.0370   0.0000  0.0042  !             
 -0.0000   0.0185   0.0000  0.0042  !             
  0.0000   0.0000   0.0000  0.0042  ! $\Gamma$    
  0.0000   0.0000   0.0000  0.0042  ! $\Gamma$    
  0.0000   0.0000   0.0179  0.0042  !             
  0.0000   0.0000   0.0357  0.0042  !             
  0.0000   0.0000   0.0536  0.0042  !             
  0.0000   0.0000   0.0714  0.0042  !             
 -0.0000   0.0000   0.0893  0.0042  !             
  0.0000   0.0000   0.1071  0.0042  !             
  0.0000   0.0000   0.1250  0.0042  !             
  0.0000   0.0000   0.1429  0.0042  !             
  0.0000   0.0000   0.1607  0.0042  !             
 -0.0000   0.0000   0.1786  0.0042  !             
 -0.0000   0.0000   0.1964  0.0042  !             
  0.0000   0.0000   0.2143  0.0042  !             
 -0.0000   0.0000   0.2321  0.0042  !             
  0.0000   0.0000   0.2500  0.0042  !             
  0.0000   0.0000   0.2679  0.0042  !             
  0.0000   0.0000   0.2857  0.0042  !             
  0.0000   0.0000   0.3036  0.0042  !             
  0.0000   0.0000   0.3214  0.0042  !             
 -0.0000   0.0000   0.3393  0.0042  !             
 -0.0000   0.0000   0.3571  0.0042  !             
  0.0000   0.0000   0.3750  0.0042  !             
 -0.0000   0.0000   0.3929  0.0042  !             
  0.0000   0.0000   0.4107  0.0042  !             
  0.0000   0.0000   0.4286  0.0042  !             
 -0.0000  -0.0000   0.4464  0.0042  !             
 -0.0000   0.0000   0.4643  0.0042  !             
 -0.0000  -0.0000   0.4821  0.0042  !             
  0.0000   0.0000   0.5000  0.0042  ! $Z$         
  0.5000   0.5000   0.5000  0.0042  ! $R$         
  0.4881   0.4881   0.4881  0.0042  !             
  0.4762   0.4762   0.4762  0.0042  !             
  0.4643   0.4643   0.4643  0.0042  !             
  0.4524   0.4524   0.4524  0.0042  !             
  0.4405   0.4405   0.4405  0.0042  !             
  0.4286   0.4286   0.4286  0.0042  !             
  0.4167   0.4167   0.4167  0.0042  !             
  0.4048   0.4048   0.4048  0.0042  !             
  0.3929   0.3929   0.3929  0.0042  !             
  0.3810   0.3810   0.3810  0.0042  !             
  0.3690   0.3690   0.3690  0.0042  !             
  0.3571   0.3571   0.3571  0.0042  !             
  0.3452   0.3452   0.3452  0.0042  !             
  0.3333   0.3333   0.3333  0.0042  !             
  0.3214   0.3214   0.3214  0.0042  !             
  0.3095   0.3095   0.3095  0.0042  !             
  0.2976   0.2976   0.2976  0.0042  !             
  0.2857   0.2857   0.2857  0.0042  !             
  0.2738   0.2738   0.2738  0.0042  !             
  0.2619   0.2619   0.2619  0.0042  !             
  0.2500   0.2500   0.2500  0.0042  !             
  0.2381   0.2381   0.2381  0.0042  !             
  0.2262   0.2262   0.2262  0.0042  !             
  0.2143   0.2143   0.2143  0.0042  !             
  0.2024   0.2024   0.2024  0.0042  !             
  0.1905   0.1905   0.1905  0.0042  !             
  0.1786   0.1786   0.1786  0.0042  !             
  0.1667   0.1667   0.1667  0.0042  !             
  0.1548   0.1548   0.1548  0.0042  !             
  0.1429   0.1429   0.1429  0.0042  !             
  0.1310   0.1310   0.1310  0.0042  !             
  0.1190   0.1190   0.1190  0.0042  !             
  0.1071   0.1071   0.1071  0.0042  !             
  0.0952   0.0952   0.0952  0.0042  !             
  0.0833   0.0833   0.0833  0.0042  !             
  0.0714   0.0714   0.0714  0.0042  !             
  0.0595   0.0595   0.0595  0.0042  !             
  0.0476   0.0476   0.0476  0.0042  !             
  0.0357   0.0357   0.0357  0.0042  !             
  0.0238   0.0238   0.0238  0.0042  !             
  0.0119   0.0119   0.0119  0.0042  !             
  0.0000   0.0000   0.0000  0.0042  ! $\Gamma$    
  0.0000   0.0000   0.0000  0.0042  ! $\Gamma$    
 -0.0000   0.0139   0.0139  0.0042  !             
 -0.0000   0.0278   0.0278  0.0042  !             
 -0.0000   0.0417   0.0417  0.0042  !             
 -0.0000   0.0556   0.0556  0.0042  !             
 -0.0000   0.0694   0.0694  0.0042  !             
 -0.0000   0.0833   0.0833  0.0042  !             
 -0.0000   0.0972   0.0972  0.0042  !             
 -0.0000   0.1111   0.1111  0.0042  !             
 -0.0000   0.1250   0.1250  0.0042  !             
 -0.0000   0.1389   0.1389  0.0042  !             
 -0.0000   0.1528   0.1528  0.0042  !             
 -0.0000   0.1667   0.1667  0.0042  !             
  0.0000   0.1806   0.1806  0.0042  !             
 -0.0000   0.1944   0.1944  0.0042  !             
 -0.0000   0.2083   0.2083  0.0042  !             
 -0.0000   0.2222   0.2222  0.0042  !             
 -0.0000   0.2361   0.2361  0.0042  !             
 -0.0000   0.2500   0.2500  0.0042  !             
 -0.0000   0.2639   0.2639  0.0042  !             
 -0.0000   0.2778   0.2778  0.0042  !             
 -0.0000   0.2917   0.2917  0.0042  !             
 -0.0000   0.3056   0.3056  0.0042  !             
 -0.0000   0.3194   0.3194  0.0042  !             
 -0.0000   0.3333   0.3333  0.0042  !             
 -0.0000   0.3472   0.3472  0.0042  !             
  0.0000   0.3611   0.3611  0.0042  !             
 -0.0000   0.3750   0.3750  0.0042  !             
 -0.0000   0.3889   0.3889  0.0042  !             
 -0.0000   0.4028   0.4028  0.0042  !             
 -0.0000   0.4167   0.4167  0.0042  !             
 -0.0000   0.4306   0.4306  0.0042  !             
 -0.0000   0.4444   0.4444  0.0042  !             
 -0.0000   0.4583   0.4583  0.0042  !             
 -0.0000   0.4722   0.4722  0.0042  !             
 -0.0000   0.4861   0.4861  0.0042  !             
 -0.0000   0.5000   0.5000  0.0042  ! $T$         
  0.5000   0.0000   0.5000  0.0042  ! $U$         
  0.4865   0.0000   0.4865  0.0042  !             
  0.4730   0.0000   0.4730  0.0042  !             
  0.4595  -0.0000   0.4595  0.0042  !             
  0.4459  -0.0000   0.4459  0.0042  !             
  0.4324   0.0000   0.4324  0.0042  !             
  0.4189   0.0000   0.4189  0.0042  !             
  0.4054  -0.0000   0.4054  0.0042  !             
  0.3919   0.0000   0.3919  0.0042  !             
  0.3784   0.0000   0.3784  0.0042  !             
  0.3649   0.0000   0.3649  0.0042  !             
  0.3514   0.0000   0.3514  0.0042  !             
  0.3378  -0.0000   0.3378  0.0042  !             
  0.3243   0.0000   0.3243  0.0042  !             
  0.3108  -0.0000   0.3108  0.0042  !             
  0.2973  -0.0000   0.2973  0.0042  !             
  0.2838  -0.0000   0.2838  0.0042  !             
  0.2703   0.0000   0.2703  0.0042  !             
  0.2568   0.0000   0.2568  0.0042  !             
  0.2432   0.0000   0.2432  0.0042  !             
  0.2297   0.0000   0.2297  0.0042  !             
  0.2162   0.0000   0.2162  0.0042  !             
  0.2027  -0.0000   0.2027  0.0042  !             
  0.1892   0.0000   0.1892  0.0042  !             
  0.1757  -0.0000   0.1757  0.0042  !             
  0.1622  -0.0000   0.1622  0.0042  !             
  0.1486   0.0000   0.1486  0.0042  !             
  0.1351  -0.0000   0.1351  0.0042  !             
  0.1216  -0.0000   0.1216  0.0042  !             
  0.1081   0.0000   0.1081  0.0042  !             
  0.0946   0.0000   0.0946  0.0042  !             
  0.0811  -0.0000   0.0811  0.0042  !             
  0.0676  -0.0000   0.0676  0.0042  !             
  0.0541   0.0000   0.0541  0.0042  !             
  0.0405  -0.0000   0.0405  0.0042  !             
  0.0270  -0.0000   0.0270  0.0042  !             
  0.0135   0.0000   0.0135  0.0042  !             
  0.0000   0.0000   0.0000  0.0042  ! $\Gamma$    
  0.0000   0.0000   0.0000  0.0042  ! $\Gamma$    
  0.0139   0.0139   0.0000  0.0042  !             
  0.0278   0.0278   0.0000  0.0042  !             
  0.0417   0.0417   0.0000  0.0042  !             
  0.0556   0.0556   0.0000  0.0042  !             
  0.0694   0.0694   0.0000  0.0042  !             
  0.0833   0.0833   0.0000  0.0042  !             
  0.0972   0.0972   0.0000  0.0042  !             
  0.1111   0.1111   0.0000  0.0042  !             
  0.1250   0.1250   0.0000  0.0042  !             
  0.1389   0.1389   0.0000  0.0042  !             
  0.1528   0.1528   0.0000  0.0042  !             
  0.1667   0.1667   0.0000  0.0042  !             
  0.1806   0.1806   0.0000  0.0042  !             
  0.1944   0.1944   0.0000  0.0042  !             
  0.2083   0.2083   0.0000  0.0042  !             
  0.2222   0.2222   0.0000  0.0042  !             
  0.2361   0.2361   0.0000  0.0042  !             
  0.2500   0.2500   0.0000  0.0042  !             
  0.2639   0.2639   0.0000  0.0042  !             
  0.2778   0.2778   0.0000  0.0042  !             
  0.2917   0.2917   0.0000  0.0042  !             
  0.3056   0.3056   0.0000  0.0042  !             
  0.3194   0.3194   0.0000  0.0042  !             
  0.3333   0.3333   0.0000  0.0042  !             
  0.3472   0.3472   0.0000  0.0042  !             
  0.3611   0.3611   0.0000  0.0042  !             
  0.3750   0.3750   0.0000  0.0042  !             
  0.3889   0.3889   0.0000  0.0042  !             
  0.4028   0.4028   0.0000  0.0042  !             
  0.4167   0.4167   0.0000  0.0042  !             
  0.4306   0.4306   0.0000  0.0042  !             
  0.4444   0.4444   0.0000  0.0042  !             
  0.4583   0.4583   0.0000  0.0042  !             
  0.4722   0.4722   0.0000  0.0042  !             
  0.4861   0.4861   0.0000  0.0042  !             
  0.5000   0.5000   0.0000  0.0042  ! $V$         