Automatically generated mesh
243
Reciprocal lattice
  0.0000   0.0000   0.0000  0.0041  ! $\Gamma$    
  0.0172   0.0000   0.0000  0.0041  !             
  0.0345   0.0000   0.0000  0.0041  !             
  0.0517   0.0000   0.0000  0.0041  !             
  0.0690   0.0000   0.0000  0.0041  !             
  0.0862   0.0000  -0.0000  0.0041  !             
  0.1034   0.0000   0.0000  0.0041  !             
  0.1207   0.0000   0.0000  0.0041  !             
  0.1379   0.0000   0.0000  0.0041  !             
  0.1552   0.0000   0.0000  0.0041  !             
  0.1724   0.0000  -0.0000  0.0041  !             
  0.1897   0.0000   0.0000  0.0041  !             
  0.2069   0.0000   0.0000  0.0041  !             
  0.2241   0.0000   0.0000  0.0041  !             
  0.2414   0.0000   0.0000  0.0041  !             
  0.2586   0.0000   0.0000  0.0041  !             
  0.2759   0.0000   0.0000  0.0041  !             
  0.2931   0.0000  -0.0000  0.0041  !             
  0.3103   0.0000   0.0000  0.0041  !             
  0.3276   0.0000   0.0000  0.0041  !             
  0.3448   0.0000  -0.0000  0.0041  !             
  0.3621   0.0000   0.0000  0.0041  !             
  0.3793   0.0000   0.0000  0.0041  !             
  0.3966   0.0000   0.0000  0.0041  !             
  0.4138   0.0000   0.0000  0.0041  !             
  0.4310   0.0000   0.0000  0.0041  !             
  0.4483   0.0000   0.0000  0.0041  !             
  0.4655   0.0000   0.0000  0.0041  !             
  0.4828   0.0000   0.0000  0.0041  !             
  0.5000   0.0000   0.0000  0.0041  ! $X$         
 -0.0000   0.5000   0.0000  0.0041  ! $Y$         
 -0.0000   0.4833   0.0000  0.0041  !             
  0.0000   0.4667   0.0000  0.0041  !             
 -0.0000   0.4500  -0.0000  0.0041  !             
  0.0000   0.4333   0.0000  0.0041  !             
 -0.0000   0.4167   0.0000  0.0041  !             
  0.0000   0.4000   0.0000  0.0041  !             
 -0.0000   0.3833   0.0000  0.0041  !             
 -0.0000   0.3667  -0.0000  0.0041  !             
  0.0000   0.3500   0.0000  0.0041  !             
  0.0000   0.3333   0.0000  0.0041  !             
 -0.0000   0.3167  -0.0000  0.0041  !             
 -0.0000   0.3000   0.0000  0.0041  !             
  0.0000   0.2833  -0.0000  0.0041  !             
  0.0000   0.2667   0.0000  0.0041  !             
 -0.0000   0.2500   0.0000  0.0041  !             
  0.0000   0.2333   0.0000  0.0041  !             
 -0.0000   0.2167   0.0000  0.0041  !             
  0.0000   0.2000   0.0000  0.0041  !             
 -0.0000   0.1833   0.0000  0.0041  !             
  0.0000   0.1667   0.0000  0.0041  !             
 -0.0000   0.1500  -0.0000  0.0041  !             
 -0.0000   0.1333  -0.0000  0.0041  !             
  0.0000   0.1167  -0.0000  0.0041  !             
 -0.0000   0.1000   0.0000  0.0041  !             
  0.0000   0.0833  -0.0000  0.0041  !             
  0.0000   0.0667   0.0000  0.0041  !             
  0.0000   0.0500   0.0000  0.0041  !             
  0.0000   0.0333   0.0000  0.0041  !             
  0.0000   0.0167  -0.0000  0.0041  !             
  0.0000   0.0000   0.0000  0.0041  ! $\Gamma$    
  0.0000   0.0000   0.0000  0.0041  ! $\Gamma$    
  0.0000   0.0000   0.0200  0.0041  !             
  0.0000   0.0000   0.0400  0.0041  !             
  0.0000   0.0000   0.0600  0.0041  !             
  0.0000   0.0000   0.0800  0.0041  !             
  0.0000   0.0000   0.1000  0.0041  !             
  0.0000   0.0000   0.1200  0.0041  !             
  0.0000   0.0000   0.1400  0.0041  !             
  0.0000   0.0000   0.1600  0.0041  !             
  0.0000   0.0000   0.1800  0.0041  !             
  0.0000   0.0000   0.2000  0.0041  !             
  0.0000   0.0000   0.2200  0.0041  !             
  0.0000   0.0000   0.2400  0.0041  !             
  0.0000   0.0000   0.2600  0.0041  !             
  0.0000   0.0000   0.2800  0.0041  !             
  0.0000   0.0000   0.3000  0.0041  !             
  0.0000   0.0000   0.3200  0.0041  !             
  0.0000   0.0000   0.3400  0.0041  !             
  0.0000   0.0000   0.3600  0.0041  !             
  0.0000   0.0000   0.3800  0.0041  !             
  0.0000   0.0000   0.4000  0.0041  !             
  0.0000   0.0000   0.4200  0.0041  !             
  0.0000   0.0000   0.4400  0.0041  !             
  0.0000   0.0000   0.4600  0.0041  !             
  0.0000   0.0000   0.4800  0.0041  !             
  0.0000   0.0000   0.5000  0.0041  ! $Z$         
 -0.5000  -0.5000   0.5000  0.0041  ! $R_2$       
 -0.4884  -0.4884   0.4884  0.0041  !             
 -0.4767  -0.4767   0.4767  0.0041  !             
 -0.4651  -0.4651   0.4651  0.0041  !             
 -0.4535  -0.4535   0.4535  0.0041  !             
 -0.4419  -0.4419   0.4419  0.0041  !             
 -0.4302  -0.4302   0.4302  0.0041  !             
 -0.4186  -0.4186   0.4186  0.0041  !             
 -0.4070  -0.4070   0.4070  0.0041  !             
 -0.3953  -0.3953   0.3953  0.0041  !             
 -0.3837  -0.3837   0.3837  0.0041  !             
 -0.3721  -0.3721   0.3721  0.0041  !             
 -0.3605  -0.3605   0.3605  0.0041  !             
 -0.3488  -0.3488   0.3488  0.0041  !             
 -0.3372  -0.3372   0.3372  0.0041  !             
 -0.3256  -0.3256   0.3256  0.0041  !             
 -0.3140  -0.3140   0.3140  0.0041  !             
 -0.3023  -0.3023   0.3023  0.0041  !             
 -0.2907  -0.2907   0.2907  0.0041  !             
 -0.2791  -0.2791   0.2791  0.0041  !             
 -0.2674  -0.2674   0.2674  0.0041  !             
 -0.2558  -0.2558   0.2558  0.0041  !             
 -0.2442  -0.2442   0.2442  0.0041  !             
 -0.2326  -0.2326   0.2326  0.0041  !             
 -0.2209  -0.2209   0.2209  0.0041  !             
 -0.2093  -0.2093   0.2093  0.0041  !             
 -0.1977  -0.1977   0.1977  0.0041  !             
 -0.1860  -0.1860   0.1860  0.0041  !             
 -0.1744  -0.1744   0.1744  0.0041  !             
 -0.1628  -0.1628   0.1628  0.0041  !             
 -0.1512  -0.1512   0.1512  0.0041  !             
 -0.1395  -0.1395   0.1395  0.0041  !             
 -0.1279  -0.1279   0.1279  0.0041  !             
 -0.1163  -0.1163   0.1163  0.0041  !             
 -0.1047  -0.1047   0.1047  0.0041  !             
 -0.0930  -0.0930   0.0930  0.0041  !             
 -0.0814  -0.0814   0.0814  0.0041  !             
 -0.0698  -0.0698   0.0698  0.0041  !             
 -0.0581  -0.0581   0.0581  0.0041  !             
 -0.0465  -0.0465   0.0465  0.0041  !             
 -0.0349  -0.0349   0.0349  0.0041  !             
 -0.0233  -0.0233   0.0233  0.0041  !             
 -0.0116  -0.0116   0.0116  0.0041  !             
  0.0000   0.0000   0.0000  0.0041  ! $\Gamma$    
  0.0000   0.0000   0.0000  0.0041  ! $\Gamma$    
  0.0000  -0.0143   0.0143  0.0041  !             
  0.0000  -0.0286   0.0286  0.0041  !             
  0.0000  -0.0429   0.0429  0.0041  !             
  0.0000  -0.0571   0.0571  0.0041  !             
  0.0000  -0.0714   0.0714  0.0041  !             
  0.0000  -0.0857   0.0857  0.0041  !             
 -0.0000  -0.1000   0.1000  0.0041  !             
  0.0000  -0.1143   0.1143  0.0041  !             
 -0.0000  -0.1286   0.1286  0.0041  !             
  0.0000  -0.1429   0.1429  0.0041  !             
 -0.0000  -0.1571   0.1571  0.0041  !             
  0.0000  -0.1714   0.1714  0.0041  !             
  0.0000  -0.1857   0.1857  0.0041  !             
 -0.0000  -0.2000   0.2000  0.0041  !             
 -0.0000  -0.2143   0.2143  0.0041  !             
  0.0000  -0.2286   0.2286  0.0041  !             
 -0.0000  -0.2429   0.2429  0.0041  !             
 -0.0000  -0.2571   0.2571  0.0041  !             
  0.0000  -0.2714   0.2714  0.0041  !             
  0.0000  -0.2857   0.2857  0.0041  !             
  0.0000  -0.3000   0.3000  0.0041  !             
 -0.0000  -0.3143   0.3143  0.0041  !             
  0.0000  -0.3286   0.3286  0.0041  !             
  0.0000  -0.3429   0.3429  0.0041  !             
 -0.0000  -0.3571   0.3571  0.0041  !             
  0.0000  -0.3714   0.3714  0.0041  !             
  0.0000  -0.3857   0.3857  0.0041  !             
 -0.0000  -0.4000   0.4000  0.0041  !             
  0.0000  -0.4143   0.4143  0.0041  !             
 -0.0000  -0.4286   0.4286  0.0041  !             
  0.0000  -0.4429   0.4429  0.0041  !             
  0.0000  -0.4571   0.4571  0.0041  !             
 -0.0000  -0.4714   0.4714  0.0041  !             
 -0.0000  -0.4857   0.4857  0.0041  !             
  0.0000  -0.5000   0.5000  0.0041  ! $T_2$       
 -0.5000   0.0000   0.5000  0.0041  ! $U_2$       
 -0.4853   0.0000   0.4853  0.0041  !             
 -0.4706   0.0000   0.4706  0.0041  !             
 -0.4559   0.0000   0.4559  0.0041  !             
 -0.4412   0.0000   0.4412  0.0041  !             
 -0.4265   0.0000   0.4265  0.0041  !             
 -0.4118   0.0000   0.4118  0.0041  !             
 -0.3971   0.0000   0.3971  0.0041  !             
 -0.3824   0.0000   0.3824  0.0041  !             
 -0.3676   0.0000   0.3676  0.0041  !             
 -0.3529   0.0000   0.3529  0.0041  !             
 -0.3382   0.0000   0.3382  0.0041  !             
 -0.3235   0.0000   0.3235  0.0041  !             
 -0.3088   0.0000   0.3088  0.0041  !             
 -0.2941   0.0000   0.2941  0.0041  !             
 -0.2794   0.0000   0.2794  0.0041  !             
 -0.2647   0.0000   0.2647  0.0041  !             
 -0.2500   0.0000   0.2500  0.0041  !             
 -0.2353   0.0000   0.2353  0.0041  !             
 -0.2206   0.0000   0.2206  0.0041  !             
 -0.2059   0.0000   0.2059  0.0041  !             
 -0.1912   0.0000   0.1912  0.0041  !             
 -0.1765   0.0000   0.1765  0.0041  !             
 -0.1618   0.0000   0.1618  0.0041  !             
 -0.1471   0.0000   0.1471  0.0041  !             
 -0.1324   0.0000   0.1324  0.0041  !             
 -0.1176   0.0000   0.1176  0.0041  !             
 -0.1029   0.0000   0.1029  0.0041  !             
 -0.0882   0.0000   0.0882  0.0041  !             
 -0.0735   0.0000   0.0735  0.0041  !             
 -0.0588   0.0000   0.0588  0.0041  !             
 -0.0441   0.0000   0.0441  0.0041  !             
 -0.0294   0.0000   0.0294  0.0041  !             
 -0.0147   0.0000   0.0147  0.0041  !             
  0.0000   0.0000   0.0000  0.0041  ! $\Gamma$    
  0.0000   0.0000   0.0000  0.0041  ! $\Gamma$    
  0.0125  -0.0125   0.0000  0.0041  !             
  0.0250  -0.0250   0.0000  0.0041  !             
  0.0375  -0.0375   0.0000  0.0041  !             
  0.0500  -0.0500   0.0000  0.0041  !             
  0.0625  -0.0625  -0.0000  0.0041  !             
  0.0750  -0.0750   0.0000  0.0041  !             
  0.0875  -0.0875  -0.0000  0.0041  !             
  0.1000  -0.1000   0.0000  0.0041  !             
  0.1125  -0.1125   0.0000  0.0041  !             
  0.1250  -0.1250  -0.0000  0.0041  !             
  0.1375  -0.1375  -0.0000  0.0041  !             
  0.1500  -0.1500   0.0000  0.0041  !             
  0.1625  -0.1625   0.0000  0.0041  !             
  0.1750  -0.1750  -0.0000  0.0041  !             
  0.1875  -0.1875   0.0000  0.0041  !             
  0.2000  -0.2000   0.0000  0.0041  !             
  0.2125  -0.2125  -0.0000  0.0041  !             
  0.2250  -0.2250   0.0000  0.0041  !             
  0.2375  -0.2375   0.0000  0.0041  !             
  0.2500  -0.2500  -0.0000  0.0041  !             
  0.2625  -0.2625   0.0000  0.0041  !             
  0.2750  -0.2750  -0.0000  0.0041  !             
  0.2875  -0.2875  -0.0000  0.0041  !             
  0.3000  -0.3000   0.0000  0.0041  !             
  0.3125  -0.3125   0.0000  0.0041  !             
  0.3250  -0.3250   0.0000  0.0041  !             
  0.3375  -0.3375   0.0000  0.0041  !             
  0.3500  -0.3500  -0.0000  0.0041  !             
  0.3625  -0.3625  -0.0000  0.0041  !             
  0.3750  -0.3750   0.0000  0.0041  !             
  0.3875  -0.3875   0.0000  0.0041  !             
  0.4000  -0.4000   0.0000  0.0041  !             
  0.4125  -0.4125   0.0000  0.0041  !             
  0.4250  -0.4250  -0.0000  0.0041  !             
  0.4375  -0.4375   0.0000  0.0041  !             
  0.4500  -0.4500   0.0000  0.0041  !             
  0.4625  -0.4625   0.0000  0.0041  !             
  0.4750  -0.4750   0.0000  0.0041  !             
  0.4875  -0.4875   0.0000  0.0041  !             
  0.5000  -0.5000  -0.0000  0.0041  ! $V_2$       