Automatically generated mesh
316
Reciprocal lattice
  0.0000   0.0000   0.0000  0.0032  ! $\Gamma$    
  0.0000   0.0128   0.0000  0.0032  !             
  0.0000   0.0256   0.0000  0.0032  !             
  0.0000   0.0385   0.0000  0.0032  !             
  0.0000   0.0513   0.0000  0.0032  !             
  0.0000   0.0641   0.0000  0.0032  !             
  0.0000   0.0769   0.0000  0.0032  !             
  0.0000   0.0897   0.0000  0.0032  !             
  0.0000   0.1026   0.0000  0.0032  !             
  0.0000   0.1154   0.0000  0.0032  !             
  0.0000   0.1282   0.0000  0.0032  !             
  0.0000   0.1410   0.0000  0.0032  !             
  0.0000   0.1538   0.0000  0.0032  !             
  0.0000   0.1667   0.0000  0.0032  !             
  0.0000   0.1795   0.0000  0.0032  !             
  0.0000   0.1923   0.0000  0.0032  !             
  0.0000   0.2051   0.0000  0.0032  !             
  0.0000   0.2179   0.0000  0.0032  !             
  0.0000   0.2308   0.0000  0.0032  !             
  0.0000   0.2436   0.0000  0.0032  !             
  0.0000   0.2564   0.0000  0.0032  !             
  0.0000   0.2692   0.0000  0.0032  !             
  0.0000   0.2821   0.0000  0.0032  !             
  0.0000   0.2949   0.0000  0.0032  !             
  0.0000   0.3077   0.0000  0.0032  !             
  0.0000   0.3205   0.0000  0.0032  !             
  0.0000   0.3333   0.0000  0.0032  !             
  0.0000   0.3462   0.0000  0.0032  !             
  0.0000   0.3590   0.0000  0.0032  !             
  0.0000   0.3718   0.0000  0.0032  !             
  0.0000   0.3846   0.0000  0.0032  !             
  0.0000   0.3974   0.0000  0.0032  !             
  0.0000   0.4103   0.0000  0.0032  !             
  0.0000   0.4231   0.0000  0.0032  !             
  0.0000   0.4359   0.0000  0.0032  !             
  0.0000   0.4487   0.0000  0.0032  !             
  0.0000   0.4615   0.0000  0.0032  !             
  0.0000   0.4744   0.0000  0.0032  !             
  0.0000   0.4872   0.0000  0.0032  !             
  0.0000   0.5000   0.0000  0.0032  ! $Z$         
  0.0000   0.5000   0.0000  0.0032  ! $Z$         
  0.0000   0.5000   0.0238  0.0032  !             
  0.0000   0.5000   0.0476  0.0032  !             
  0.0000   0.5000   0.0714  0.0032  !             
  0.0000   0.5000   0.0952  0.0032  !             
  0.0000   0.5000   0.1190  0.0032  !             
  0.0000   0.5000   0.1429  0.0032  !             
  0.0000   0.5000   0.1667  0.0032  !             
  0.0000   0.5000   0.1905  0.0032  !             
  0.0000   0.5000   0.2143  0.0032  !             
  0.0000   0.5000   0.2381  0.0032  !             
  0.0000   0.5000   0.2619  0.0032  !             
  0.0000   0.5000   0.2857  0.0032  !             
  0.0000   0.5000   0.3095  0.0032  !             
  0.0000   0.5000   0.3333  0.0032  !             
  0.0000   0.5000   0.3571  0.0032  !             
  0.0000   0.5000   0.3810  0.0032  !             
  0.0000   0.5000   0.4048  0.0032  !             
  0.0000   0.5000   0.4286  0.0032  !             
  0.0000   0.5000   0.4524  0.0032  !             
  0.0000   0.5000   0.4762  0.0032  !             
  0.0000   0.5000   0.5000  0.0032  ! $D$         
  0.0000   0.5000   0.5000  0.0032  ! $D$         
  0.0000   0.4872   0.5000  0.0032  !             
  0.0000   0.4744   0.5000  0.0032  !             
  0.0000   0.4615   0.5000  0.0032  !             
  0.0000   0.4487   0.5000  0.0032  !             
  0.0000   0.4359   0.5000  0.0032  !             
  0.0000   0.4231   0.5000  0.0032  !             
  0.0000   0.4103   0.5000  0.0032  !             
  0.0000   0.3974   0.5000  0.0032  !             
  0.0000   0.3846   0.5000  0.0032  !             
  0.0000   0.3718   0.5000  0.0032  !             
  0.0000   0.3590   0.5000  0.0032  !             
  0.0000   0.3462   0.5000  0.0032  !             
  0.0000   0.3333   0.5000  0.0032  !             
  0.0000   0.3205   0.5000  0.0032  !             
  0.0000   0.3077   0.5000  0.0032  !             
  0.0000   0.2949   0.5000  0.0032  !             
  0.0000   0.2821   0.5000  0.0032  !             
  0.0000   0.2692   0.5000  0.0032  !             
  0.0000   0.2564   0.5000  0.0032  !             
  0.0000   0.2436   0.5000  0.0032  !             
  0.0000   0.2308   0.5000  0.0032  !             
  0.0000   0.2179   0.5000  0.0032  !             
  0.0000   0.2051   0.5000  0.0032  !             
  0.0000   0.1923   0.5000  0.0032  !             
  0.0000   0.1795   0.5000  0.0032  !             
  0.0000   0.1667   0.5000  0.0032  !             
  0.0000   0.1538   0.5000  0.0032  !             
  0.0000   0.1410   0.5000  0.0032  !             
  0.0000   0.1282   0.5000  0.0032  !             
  0.0000   0.1154   0.5000  0.0032  !             
  0.0000   0.1026   0.5000  0.0032  !             
  0.0000   0.0897   0.5000  0.0032  !             
  0.0000   0.0769   0.5000  0.0032  !             
  0.0000   0.0641   0.5000  0.0032  !             
  0.0000   0.0513   0.5000  0.0032  !             
  0.0000   0.0385   0.5000  0.0032  !             
  0.0000   0.0256   0.5000  0.0032  !             
  0.0000   0.0128   0.5000  0.0032  !             
  0.0000   0.0000   0.5000  0.0032  ! $B$         
  0.0000   0.0000   0.5000  0.0032  ! $B$         
  0.0000   0.0000   0.4762  0.0032  !             
  0.0000   0.0000   0.4524  0.0032  !             
  0.0000   0.0000   0.4286  0.0032  !             
  0.0000   0.0000   0.4048  0.0032  !             
  0.0000   0.0000   0.3810  0.0032  !             
  0.0000   0.0000   0.3571  0.0032  !             
  0.0000   0.0000   0.3333  0.0032  !             
  0.0000   0.0000   0.3095  0.0032  !             
  0.0000   0.0000   0.2857  0.0032  !             
  0.0000   0.0000   0.2619  0.0032  !             
  0.0000   0.0000   0.2381  0.0032  !             
  0.0000   0.0000   0.2143  0.0032  !             
  0.0000   0.0000   0.1905  0.0032  !             
  0.0000   0.0000   0.1667  0.0032  !             
  0.0000   0.0000   0.1429  0.0032  !             
  0.0000   0.0000   0.1190  0.0032  !             
  0.0000   0.0000   0.0952  0.0032  !             
  0.0000   0.0000   0.0714  0.0032  !             
  0.0000   0.0000   0.0476  0.0032  !             
  0.0000   0.0000   0.0238  0.0032  !             
  0.0000   0.0000   0.0000  0.0032  ! $\Gamma$    
  0.0000   0.0000   0.0000  0.0032  ! $\Gamma$    
 -0.0161   0.0000   0.0161  0.0032  !             
 -0.0323   0.0000   0.0323  0.0032  !             
 -0.0484   0.0000   0.0484  0.0032  !             
 -0.0645   0.0000   0.0645  0.0032  !             
 -0.0806   0.0000   0.0806  0.0032  !             
 -0.0968   0.0000   0.0968  0.0032  !             
 -0.1129   0.0000   0.1129  0.0032  !             
 -0.1290   0.0000   0.1290  0.0032  !             
 -0.1452   0.0000   0.1452  0.0032  !             
 -0.1613   0.0000   0.1613  0.0032  !             
 -0.1774   0.0000   0.1774  0.0032  !             
 -0.1935   0.0000   0.1935  0.0032  !             
 -0.2097   0.0000   0.2097  0.0032  !             
 -0.2258   0.0000   0.2258  0.0032  !             
 -0.2419   0.0000   0.2419  0.0032  !             
 -0.2581   0.0000   0.2581  0.0032  !             
 -0.2742   0.0000   0.2742  0.0032  !             
 -0.2903   0.0000   0.2903  0.0032  !             
 -0.3065   0.0000   0.3065  0.0032  !             
 -0.3226   0.0000   0.3226  0.0032  !             
 -0.3387   0.0000   0.3387  0.0032  !             
 -0.3548   0.0000   0.3548  0.0032  !             
 -0.3710   0.0000   0.3710  0.0032  !             
 -0.3871   0.0000   0.3871  0.0032  !             
 -0.4032   0.0000   0.4032  0.0032  !             
 -0.4194   0.0000   0.4194  0.0032  !             
 -0.4355   0.0000   0.4355  0.0032  !             
 -0.4516   0.0000   0.4516  0.0032  !             
 -0.4677   0.0000   0.4677  0.0032  !             
 -0.4839   0.0000   0.4839  0.0032  !             
 -0.5000   0.0000   0.5000  0.0032  ! $A$         
 -0.5000   0.0000   0.5000  0.0032  ! $A$         
 -0.5000   0.0128   0.5000  0.0032  !             
 -0.5000   0.0256   0.5000  0.0032  !             
 -0.5000   0.0385   0.5000  0.0032  !             
 -0.5000   0.0513   0.5000  0.0032  !             
 -0.5000   0.0641   0.5000  0.0032  !             
 -0.5000   0.0769   0.5000  0.0032  !             
 -0.5000   0.0897   0.5000  0.0032  !             
 -0.5000   0.1026   0.5000  0.0032  !             
 -0.5000   0.1154   0.5000  0.0032  !             
 -0.5000   0.1282   0.5000  0.0032  !             
 -0.5000   0.1410   0.5000  0.0032  !             
 -0.5000   0.1538   0.5000  0.0032  !             
 -0.5000   0.1667   0.5000  0.0032  !             
 -0.5000   0.1795   0.5000  0.0032  !             
 -0.5000   0.1923   0.5000  0.0032  !             
 -0.5000   0.2051   0.5000  0.0032  !             
 -0.5000   0.2179   0.5000  0.0032  !             
 -0.5000   0.2308   0.5000  0.0032  !             
 -0.5000   0.2436   0.5000  0.0032  !             
 -0.5000   0.2564   0.5000  0.0032  !             
 -0.5000   0.2692   0.5000  0.0032  !             
 -0.5000   0.2821   0.5000  0.0032  !             
 -0.5000   0.2949   0.5000  0.0032  !             
 -0.5000   0.3077   0.5000  0.0032  !             
 -0.5000   0.3205   0.5000  0.0032  !             
 -0.5000   0.3333   0.5000  0.0032  !             
 -0.5000   0.3462   0.5000  0.0032  !             
 -0.5000   0.3590   0.5000  0.0032  !             
 -0.5000   0.3718   0.5000  0.0032  !             
 -0.5000   0.3846   0.5000  0.0032  !             
 -0.5000   0.3974   0.5000  0.0032  !             
 -0.5000   0.4103   0.5000  0.0032  !             
 -0.5000   0.4231   0.5000  0.0032  !             
 -0.5000   0.4359   0.5000  0.0032  !             
 -0.5000   0.4487   0.5000  0.0032  !             
 -0.5000   0.4615   0.5000  0.0032  !             
 -0.5000   0.4744   0.5000  0.0032  !             
 -0.5000   0.4872   0.5000  0.0032  !             
 -0.5000   0.5000   0.5000  0.0032  ! $E$         
 -0.5000   0.5000   0.5000  0.0032  ! $E$         
 -0.4839   0.5000   0.4839  0.0032  !             
 -0.4677   0.5000   0.4677  0.0032  !             
 -0.4516   0.5000   0.4516  0.0032  !             
 -0.4355   0.5000   0.4355  0.0032  !             
 -0.4194   0.5000   0.4194  0.0032  !             
 -0.4032   0.5000   0.4032  0.0032  !             
 -0.3871   0.5000   0.3871  0.0032  !             
 -0.3710   0.5000   0.3710  0.0032  !             
 -0.3548   0.5000   0.3548  0.0032  !             
 -0.3387   0.5000   0.3387  0.0032  !             
 -0.3226   0.5000   0.3226  0.0032  !             
 -0.3065   0.5000   0.3065  0.0032  !             
 -0.2903   0.5000   0.2903  0.0032  !             
 -0.2742   0.5000   0.2742  0.0032  !             
 -0.2581   0.5000   0.2581  0.0032  !             
 -0.2419   0.5000   0.2419  0.0032  !             
 -0.2258   0.5000   0.2258  0.0032  !             
 -0.2097   0.5000   0.2097  0.0032  !             
 -0.1935   0.5000   0.1935  0.0032  !             
 -0.1774   0.5000   0.1774  0.0032  !             
 -0.1613   0.5000   0.1613  0.0032  !             
 -0.1452   0.5000   0.1452  0.0032  !             
 -0.1290   0.5000   0.1290  0.0032  !             
 -0.1129   0.5000   0.1129  0.0032  !             
 -0.0968   0.5000   0.0968  0.0032  !             
 -0.0806   0.5000   0.0806  0.0032  !             
 -0.0645   0.5000   0.0645  0.0032  !             
 -0.0484   0.5000   0.0484  0.0032  !             
 -0.0323   0.5000   0.0323  0.0032  !             
 -0.0161   0.5000   0.0161  0.0032  !             
  0.0000   0.5000   0.0000  0.0032  ! $Z$         
  0.0000   0.5000   0.0000  0.0032  ! $Z$         
 -0.0217   0.5000   0.0000  0.0032  !             
 -0.0435   0.5000   0.0000  0.0032  !             
 -0.0652   0.5000   0.0000  0.0032  !             
 -0.0870   0.5000   0.0000  0.0032  !             
 -0.1087   0.5000   0.0000  0.0032  !             
 -0.1304   0.5000   0.0000  0.0032  !             
 -0.1522   0.5000   0.0000  0.0032  !             
 -0.1739   0.5000   0.0000  0.0032  !             
 -0.1957   0.5000   0.0000  0.0032  !             
 -0.2174   0.5000   0.0000  0.0032  !             
 -0.2391   0.5000   0.0000  0.0032  !             
 -0.2609   0.5000   0.0000  0.0032  !             
 -0.2826   0.5000   0.0000  0.0032  !             
 -0.3043   0.5000   0.0000  0.0032  !             
 -0.3261   0.5000   0.0000  0.0032  !             
 -0.3478   0.5000   0.0000  0.0032  !             
 -0.3696   0.5000   0.0000  0.0032  !             
 -0.3913   0.5000   0.0000  0.0032  !             
 -0.4130   0.5000   0.0000  0.0032  !             
 -0.4348   0.5000   0.0000  0.0032  !             
 -0.4565   0.5000   0.0000  0.0032  !             
 -0.4783   0.5000   0.0000  0.0032  !             
 -0.5000   0.5000   0.0000  0.0032  ! $C_2$       
 -0.5000   0.5000   0.0000  0.0032  ! $C_2$       
 -0.5000   0.4872   0.0000  0.0032  !             
 -0.5000   0.4744   0.0000  0.0032  !             
 -0.5000   0.4615   0.0000  0.0032  !             
 -0.5000   0.4487   0.0000  0.0032  !             
 -0.5000   0.4359   0.0000  0.0032  !             
 -0.5000   0.4231   0.0000  0.0032  !             
 -0.5000   0.4103   0.0000  0.0032  !             
 -0.5000   0.3974   0.0000  0.0032  !             
 -0.5000   0.3846   0.0000  0.0032  !             
 -0.5000   0.3718   0.0000  0.0032  !             
 -0.5000   0.3590   0.0000  0.0032  !             
 -0.5000   0.3462   0.0000  0.0032  !             
 -0.5000   0.3333   0.0000  0.0032  !             
 -0.5000   0.3205   0.0000  0.0032  !             
 -0.5000   0.3077   0.0000  0.0032  !             
 -0.5000   0.2949   0.0000  0.0032  !             
 -0.5000   0.2821   0.0000  0.0032  !             
 -0.5000   0.2692   0.0000  0.0032  !             
 -0.5000   0.2564   0.0000  0.0032  !             
 -0.5000   0.2436   0.0000  0.0032  !             
 -0.5000   0.2308   0.0000  0.0032  !             
 -0.5000   0.2179   0.0000  0.0032  !             
 -0.5000   0.2051   0.0000  0.0032  !             
 -0.5000   0.1923   0.0000  0.0032  !             
 -0.5000   0.1795   0.0000  0.0032  !             
 -0.5000   0.1667   0.0000  0.0032  !             
 -0.5000   0.1538   0.0000  0.0032  !             
 -0.5000   0.1410   0.0000  0.0032  !             
 -0.5000   0.1282   0.0000  0.0032  !             
 -0.5000   0.1154   0.0000  0.0032  !             
 -0.5000   0.1026   0.0000  0.0032  !             
 -0.5000   0.0897   0.0000  0.0032  !             
 -0.5000   0.0769   0.0000  0.0032  !             
 -0.5000   0.0641   0.0000  0.0032  !             
 -0.5000   0.0513   0.0000  0.0032  !             
 -0.5000   0.0385   0.0000  0.0032  !             
 -0.5000   0.0256   0.0000  0.0032  !             
 -0.5000   0.0128   0.0000  0.0032  !             
 -0.5000   0.0000   0.0000  0.0032  ! $Y_2$       
 -0.5000   0.0000   0.0000  0.0032  ! $Y_2$       
 -0.4783   0.0000   0.0000  0.0032  !             
 -0.4565   0.0000   0.0000  0.0032  !             
 -0.4348   0.0000  -0.0000  0.0032  !             
 -0.4130   0.0000   0.0000  0.0032  !             
 -0.3913   0.0000   0.0000  0.0032  !             
 -0.3696   0.0000   0.0000  0.0032  !             
 -0.3478   0.0000   0.0000  0.0032  !             
 -0.3261   0.0000   0.0000  0.0032  !             
 -0.3043   0.0000   0.0000  0.0032  !             
 -0.2826   0.0000   0.0000  0.0032  !             
 -0.2609   0.0000   0.0000  0.0032  !             
 -0.2391   0.0000   0.0000  0.0032  !             
 -0.2174   0.0000  -0.0000  0.0032  !             
 -0.1957   0.0000   0.0000  0.0032  !             
 -0.1739   0.0000   0.0000  0.0032  !             
 -0.1522   0.0000   0.0000  0.0032  !             
 -0.1304   0.0000   0.0000  0.0032  !             
 -0.1087   0.0000   0.0000  0.0032  !             
 -0.0870   0.0000   0.0000  0.0032  !             
 -0.0652   0.0000  -0.0000  0.0032  !             
 -0.0435   0.0000   0.0000  0.0032  !             
 -0.0217   0.0000   0.0000  0.0032  !             
  0.0000   0.0000   0.0000  0.0032  ! $\Gamma$    