Automatically generated mesh
243
Reciprocal lattice
  0.0000   0.0000   0.0000  0.0041  ! $\Gamma$    
  0.0147  -0.0000  -0.0000  0.0041  !             
  0.0294  -0.0000  -0.0000  0.0041  !             
  0.0441   0.0000  -0.0000  0.0041  !             
  0.0588  -0.0000  -0.0000  0.0041  !             
  0.0735   0.0000  -0.0000  0.0041  !             
  0.0882   0.0000  -0.0000  0.0041  !             
  0.1029   0.0000  -0.0000  0.0041  !             
  0.1176  -0.0000  -0.0000  0.0041  !             
  0.1324   0.0000  -0.0000  0.0041  !             
  0.1471   0.0000  -0.0000  0.0041  !             
  0.1618  -0.0000  -0.0000  0.0041  !             
  0.1765   0.0000  -0.0000  0.0041  !             
  0.1912   0.0000  -0.0000  0.0041  !             
  0.2059   0.0000  -0.0000  0.0041  !             
  0.2206  -0.0000  -0.0000  0.0041  !             
  0.2353  -0.0000  -0.0000  0.0041  !             
  0.2500   0.0000  -0.0000  0.0041  !             
  0.2647   0.0000  -0.0000  0.0041  !             
  0.2794   0.0000   0.0000  0.0041  !             
  0.2941   0.0000  -0.0000  0.0041  !             
  0.3088   0.0000  -0.0000  0.0041  !             
  0.3235  -0.0000  -0.0000  0.0041  !             
  0.3382  -0.0000  -0.0000  0.0041  !             
  0.3529   0.0000  -0.0000  0.0041  !             
  0.3676   0.0000  -0.0000  0.0041  !             
  0.3824   0.0000  -0.0000  0.0041  !             
  0.3971  -0.0000  -0.0000  0.0041  !             
  0.4118   0.0000  -0.0000  0.0041  !             
  0.4265  -0.0000  -0.0000  0.0041  !             
  0.4412  -0.0000  -0.0000  0.0041  !             
  0.4559   0.0000  -0.0000  0.0041  !             
  0.4706  -0.0000  -0.0000  0.0041  !             
  0.4853   0.0000   0.0000  0.0041  !             
  0.5000   0.0000  -0.0000  0.0041  ! $X$         
  0.0000   0.5000   0.0000  0.0041  ! $Y$         
  0.0000   0.4792   0.0000  0.0041  !             
  0.0000   0.4583   0.0000  0.0041  !             
  0.0000   0.4375   0.0000  0.0041  !             
  0.0000   0.4167   0.0000  0.0041  !             
  0.0000   0.3958   0.0000  0.0041  !             
  0.0000   0.3750   0.0000  0.0041  !             
  0.0000   0.3542   0.0000  0.0041  !             
  0.0000   0.3333   0.0000  0.0041  !             
  0.0000   0.3125   0.0000  0.0041  !             
  0.0000   0.2917   0.0000  0.0041  !             
  0.0000   0.2708   0.0000  0.0041  !             
  0.0000   0.2500   0.0000  0.0041  !             
  0.0000   0.2292   0.0000  0.0041  !             
  0.0000   0.2083   0.0000  0.0041  !             
  0.0000   0.1875   0.0000  0.0041  !             
  0.0000   0.1667   0.0000  0.0041  !             
  0.0000   0.1458   0.0000  0.0041  !             
  0.0000   0.1250   0.0000  0.0041  !             
  0.0000   0.1042   0.0000  0.0041  !             
  0.0000   0.0833   0.0000  0.0041  !             
  0.0000   0.0625   0.0000  0.0041  !             
  0.0000   0.0417   0.0000  0.0041  !             
  0.0000   0.0208   0.0000  0.0041  !             
  0.0000   0.0000   0.0000  0.0041  ! $\Gamma$    
  0.0000   0.0000   0.0000  0.0041  ! $\Gamma$    
  0.0000   0.0000   0.0192  0.0041  !             
  0.0000   0.0000   0.0385  0.0041  !             
  0.0000   0.0000   0.0577  0.0041  !             
  0.0000   0.0000   0.0769  0.0041  !             
  0.0000  -0.0000   0.0962  0.0041  !             
  0.0000   0.0000   0.1154  0.0041  !             
  0.0000  -0.0000   0.1346  0.0041  !             
  0.0000   0.0000   0.1538  0.0041  !             
  0.0000   0.0000   0.1731  0.0041  !             
  0.0000  -0.0000   0.1923  0.0041  !             
  0.0000  -0.0000   0.2115  0.0041  !             
  0.0000   0.0000   0.2308  0.0041  !             
  0.0000   0.0000   0.2500  0.0041  !             
  0.0000  -0.0000   0.2692  0.0041  !             
  0.0000  -0.0000   0.2885  0.0041  !             
  0.0000   0.0000   0.3077  0.0041  !             
  0.0000   0.0000   0.3269  0.0041  !             
  0.0000   0.0000   0.3462  0.0041  !             
  0.0000  -0.0000   0.3654  0.0041  !             
  0.0000  -0.0000   0.3846  0.0041  !             
  0.0000   0.0000   0.4038  0.0041  !             
  0.0000  -0.0000   0.4231  0.0041  !             
  0.0000   0.0000   0.4423  0.0041  !             
  0.0000   0.0000   0.4615  0.0041  !             
  0.0000   0.0000   0.4808  0.0041  !             
  0.0000   0.0000   0.5000  0.0041  ! $Z$         
  0.5000   0.5000   0.5000  0.0041  ! $R$         
  0.4881   0.4881   0.4881  0.0041  !             
  0.4762   0.4762   0.4762  0.0041  !             
  0.4643   0.4643   0.4643  0.0041  !             
  0.4524   0.4524   0.4524  0.0041  !             
  0.4405   0.4405   0.4405  0.0041  !             
  0.4286   0.4286   0.4286  0.0041  !             
  0.4167   0.4167   0.4167  0.0041  !             
  0.4048   0.4048   0.4048  0.0041  !             
  0.3929   0.3929   0.3929  0.0041  !             
  0.3810   0.3810   0.3810  0.0041  !             
  0.3690   0.3690   0.3690  0.0041  !             
  0.3571   0.3571   0.3571  0.0041  !             
  0.3452   0.3452   0.3452  0.0041  !             
  0.3333   0.3333   0.3333  0.0041  !             
  0.3214   0.3214   0.3214  0.0041  !             
  0.3095   0.3095   0.3095  0.0041  !             
  0.2976   0.2976   0.2976  0.0041  !             
  0.2857   0.2857   0.2857  0.0041  !             
  0.2738   0.2738   0.2738  0.0041  !             
  0.2619   0.2619   0.2619  0.0041  !             
  0.2500   0.2500   0.2500  0.0041  !             
  0.2381   0.2381   0.2381  0.0041  !             
  0.2262   0.2262   0.2262  0.0041  !             
  0.2143   0.2143   0.2143  0.0041  !             
  0.2024   0.2024   0.2024  0.0041  !             
  0.1905   0.1905   0.1905  0.0041  !             
  0.1786   0.1786   0.1786  0.0041  !             
  0.1667   0.1667   0.1667  0.0041  !             
  0.1548   0.1548   0.1548  0.0041  !             
  0.1429   0.1429   0.1429  0.0041  !             
  0.1310   0.1310   0.1310  0.0041  !             
  0.1190   0.1190   0.1190  0.0041  !             
  0.1071   0.1071   0.1071  0.0041  !             
  0.0952   0.0952   0.0952  0.0041  !             
  0.0833   0.0833   0.0833  0.0041  !             
  0.0714   0.0714   0.0714  0.0041  !             
  0.0595   0.0595   0.0595  0.0041  !             
  0.0476   0.0476   0.0476  0.0041  !             
  0.0357   0.0357   0.0357  0.0041  !             
  0.0238   0.0238   0.0238  0.0041  !             
  0.0119   0.0119   0.0119  0.0041  !             
  0.0000   0.0000   0.0000  0.0041  ! $\Gamma$    
  0.0000   0.0000   0.0000  0.0041  ! $\Gamma$    
  0.0000   0.0172   0.0172  0.0041  !             
  0.0000   0.0345   0.0345  0.0041  !             
  0.0000   0.0517   0.0517  0.0041  !             
  0.0000   0.0690   0.0690  0.0041  !             
  0.0000   0.0862   0.0862  0.0041  !             
  0.0000   0.1034   0.1034  0.0041  !             
  0.0000   0.1207   0.1207  0.0041  !             
  0.0000   0.1379   0.1379  0.0041  !             
  0.0000   0.1552   0.1552  0.0041  !             
  0.0000   0.1724   0.1724  0.0041  !             
  0.0000   0.1897   0.1897  0.0041  !             
  0.0000   0.2069   0.2069  0.0041  !             
  0.0000   0.2241   0.2241  0.0041  !             
  0.0000   0.2414   0.2414  0.0041  !             
  0.0000   0.2586   0.2586  0.0041  !             
  0.0000   0.2759   0.2759  0.0041  !             
  0.0000   0.2931   0.2931  0.0041  !             
  0.0000   0.3103   0.3103  0.0041  !             
  0.0000   0.3276   0.3276  0.0041  !             
  0.0000   0.3448   0.3448  0.0041  !             
  0.0000   0.3621   0.3621  0.0041  !             
  0.0000   0.3793   0.3793  0.0041  !             
  0.0000   0.3966   0.3966  0.0041  !             
  0.0000   0.4138   0.4138  0.0041  !             
  0.0000   0.4310   0.4310  0.0041  !             
  0.0000   0.4483   0.4483  0.0041  !             
  0.0000   0.4655   0.4655  0.0041  !             
  0.0000   0.4828   0.4828  0.0041  !             
  0.0000   0.5000   0.5000  0.0041  ! $T$         
  0.5000   0.0000   0.5000  0.0041  ! $U$         
  0.4875   0.0000   0.4875  0.0041  !             
  0.4750   0.0000   0.4750  0.0041  !             
  0.4625   0.0000   0.4625  0.0041  !             
  0.4500   0.0000   0.4500  0.0041  !             
  0.4375   0.0000   0.4375  0.0041  !             
  0.4250   0.0000   0.4250  0.0041  !             
  0.4125   0.0000   0.4125  0.0041  !             
  0.4000   0.0000   0.4000  0.0041  !             
  0.3875   0.0000   0.3875  0.0041  !             
  0.3750   0.0000   0.3750  0.0041  !             
  0.3625   0.0000   0.3625  0.0041  !             
  0.3500   0.0000   0.3500  0.0041  !             
  0.3375  -0.0000   0.3375  0.0041  !             
  0.3250   0.0000   0.3250  0.0041  !             
  0.3125   0.0000   0.3125  0.0041  !             
  0.3000   0.0000   0.3000  0.0041  !             
  0.2875  -0.0000   0.2875  0.0041  !             
  0.2750   0.0000   0.2750  0.0041  !             
  0.2625   0.0000   0.2625  0.0041  !             
  0.2500   0.0000   0.2500  0.0041  !             
  0.2375   0.0000   0.2375  0.0041  !             
  0.2250   0.0000   0.2250  0.0041  !             
  0.2125   0.0000   0.2125  0.0041  !             
  0.2000   0.0000   0.2000  0.0041  !             
  0.1875   0.0000   0.1875  0.0041  !             
  0.1750   0.0000   0.1750  0.0041  !             
  0.1625   0.0000   0.1625  0.0041  !             
  0.1500   0.0000   0.1500  0.0041  !             
  0.1375   0.0000   0.1375  0.0041  !             
  0.1250   0.0000   0.1250  0.0041  !             
  0.1125  -0.0000   0.1125  0.0041  !             
  0.1000  -0.0000   0.1000  0.0041  !             
  0.0875   0.0000   0.0875  0.0041  !             
  0.0750  -0.0000   0.0750  0.0041  !             
  0.0625  -0.0000   0.0625  0.0041  !             
  0.0500   0.0000   0.0500  0.0041  !             
  0.0375   0.0000   0.0375  0.0041  !             
  0.0250   0.0000   0.0250  0.0041  !             
  0.0125  -0.0000   0.0125  0.0041  !             
  0.0000   0.0000   0.0000  0.0041  ! $\Gamma$    
  0.0000   0.0000   0.0000  0.0041  ! $\Gamma$    
  0.0122   0.0122  -0.0000  0.0041  !             
  0.0244   0.0244  -0.0000  0.0041  !             
  0.0366   0.0366  -0.0000  0.0041  !             
  0.0488   0.0488  -0.0000  0.0041  !             
  0.0610   0.0610  -0.0000  0.0041  !             
  0.0732   0.0732  -0.0000  0.0041  !             
  0.0854   0.0854   0.0000  0.0041  !             
  0.0976   0.0976  -0.0000  0.0041  !             
  0.1098   0.1098  -0.0000  0.0041  !             
  0.1220   0.1220  -0.0000  0.0041  !             
  0.1341   0.1341  -0.0000  0.0041  !             
  0.1463   0.1463  -0.0000  0.0041  !             
  0.1585   0.1585  -0.0000  0.0041  !             
  0.1707   0.1707   0.0000  0.0041  !             
  0.1829   0.1829  -0.0000  0.0041  !             
  0.1951   0.1951  -0.0000  0.0041  !             
  0.2073   0.2073  -0.0000  0.0041  !             
  0.2195   0.2195  -0.0000  0.0041  !             
  0.2317   0.2317  -0.0000  0.0041  !             
  0.2439   0.2439  -0.0000  0.0041  !             
  0.2561   0.2561  -0.0000  0.0041  !             
  0.2683   0.2683  -0.0000  0.0041  !             
  0.2805   0.2805  -0.0000  0.0041  !             
  0.2927   0.2927  -0.0000  0.0041  !             
  0.3049   0.3049  -0.0000  0.0041  !             
  0.3171   0.3171  -0.0000  0.0041  !             
  0.3293   0.3293  -0.0000  0.0041  !             
  0.3415   0.3415   0.0000  0.0041  !             
  0.3537   0.3537  -0.0000  0.0041  !             
  0.3659   0.3659  -0.0000  0.0041  !             
  0.3780   0.3780  -0.0000  0.0041  !             
  0.3902   0.3902  -0.0000  0.0041  !             
  0.4024   0.4024  -0.0000  0.0041  !             
  0.4146   0.4146  -0.0000  0.0041  !             
  0.4268   0.4268  -0.0000  0.0041  !             
  0.4390   0.4390  -0.0000  0.0041  !             
  0.4512   0.4512   0.0000  0.0041  !             
  0.4634   0.4634  -0.0000  0.0041  !             
  0.4756   0.4756  -0.0000  0.0041  !             
  0.4878   0.4878  -0.0000  0.0041  !             
  0.5000   0.5000  -0.0000  0.0041  ! $V$         