Automatically generated mesh
214
Reciprocal lattice
  0.0000   0.0000   0.0000  0.0047  ! $\Gamma$    
  0.0217   0.0000   0.0000  0.0047  !             
  0.0435   0.0000   0.0000  0.0047  !             
  0.0652   0.0000   0.0000  0.0047  !             
  0.0870   0.0000   0.0000  0.0047  !             
  0.1087   0.0000   0.0000  0.0047  !             
  0.1304   0.0000   0.0000  0.0047  !             
  0.1522   0.0000   0.0000  0.0047  !             
  0.1739   0.0000   0.0000  0.0047  !             
  0.1957   0.0000   0.0000  0.0047  !             
  0.2174   0.0000   0.0000  0.0047  !             
  0.2391   0.0000   0.0000  0.0047  !             
  0.2609   0.0000   0.0000  0.0047  !             
  0.2826   0.0000   0.0000  0.0047  !             
  0.3043   0.0000   0.0000  0.0047  !             
  0.3261   0.0000   0.0000  0.0047  !             
  0.3478   0.0000   0.0000  0.0047  !             
  0.3696   0.0000   0.0000  0.0047  !             
  0.3913   0.0000   0.0000  0.0047  !             
  0.4130   0.0000   0.0000  0.0047  !             
  0.4348   0.0000   0.0000  0.0047  !             
  0.4565   0.0000   0.0000  0.0047  !             
  0.4783   0.0000   0.0000  0.0047  !             
  0.5000   0.0000   0.0000  0.0047  ! $X$         
  0.0000   0.5000   0.0000  0.0047  ! $Y$         
  0.0000   0.4808   0.0000  0.0047  !             
  0.0000   0.4615   0.0000  0.0047  !             
  0.0000   0.4423   0.0000  0.0047  !             
 -0.0000   0.4231   0.0000  0.0047  !             
  0.0000   0.4038   0.0000  0.0047  !             
  0.0000   0.3846   0.0000  0.0047  !             
 -0.0000   0.3654   0.0000  0.0047  !             
  0.0000   0.3462   0.0000  0.0047  !             
  0.0000   0.3269   0.0000  0.0047  !             
  0.0000   0.3077   0.0000  0.0047  !             
  0.0000   0.2885   0.0000  0.0047  !             
  0.0000   0.2692   0.0000  0.0047  !             
  0.0000   0.2500   0.0000  0.0047  !             
  0.0000   0.2308   0.0000  0.0047  !             
  0.0000   0.2115   0.0000  0.0047  !             
 -0.0000   0.1923   0.0000  0.0047  !             
  0.0000   0.1731   0.0000  0.0047  !             
  0.0000   0.1538   0.0000  0.0047  !             
  0.0000   0.1346   0.0000  0.0047  !             
 -0.0000   0.1154   0.0000  0.0047  !             
  0.0000   0.0962   0.0000  0.0047  !             
  0.0000   0.0769   0.0000  0.0047  !             
  0.0000   0.0577   0.0000  0.0047  !             
  0.0000   0.0385   0.0000  0.0047  !             
  0.0000   0.0192   0.0000  0.0047  !             
  0.0000   0.0000   0.0000  0.0047  ! $\Gamma$    
  0.0000   0.0000   0.0000  0.0047  ! $\Gamma$    
  0.0000  -0.0000   0.0179  0.0047  !             
  0.0000  -0.0000   0.0357  0.0047  !             
 -0.0000  -0.0000   0.0536  0.0047  !             
  0.0000  -0.0000   0.0714  0.0047  !             
  0.0000  -0.0000   0.0893  0.0047  !             
 -0.0000  -0.0000   0.1071  0.0047  !             
  0.0000  -0.0000   0.1250  0.0047  !             
  0.0000  -0.0000   0.1429  0.0047  !             
 -0.0000  -0.0000   0.1607  0.0047  !             
  0.0000  -0.0000   0.1786  0.0047  !             
 -0.0000  -0.0000   0.1964  0.0047  !             
 -0.0000  -0.0000   0.2143  0.0047  !             
  0.0000   0.0000   0.2321  0.0047  !             
  0.0000  -0.0000   0.2500  0.0047  !             
  0.0000  -0.0000   0.2679  0.0047  !             
  0.0000  -0.0000   0.2857  0.0047  !             
  0.0000  -0.0000   0.3036  0.0047  !             
 -0.0000  -0.0000   0.3214  0.0047  !             
 -0.0000  -0.0000   0.3393  0.0047  !             
  0.0000  -0.0000   0.3571  0.0047  !             
 -0.0000  -0.0000   0.3750  0.0047  !             
 -0.0000  -0.0000   0.3929  0.0047  !             
 -0.0000  -0.0000   0.4107  0.0047  !             
 -0.0000  -0.0000   0.4286  0.0047  !             
 -0.0000  -0.0000   0.4464  0.0047  !             
  0.0000   0.0000   0.4643  0.0047  !             
 -0.0000  -0.0000   0.4821  0.0047  !             
  0.0000  -0.0000   0.5000  0.0047  ! $Z$         
 -0.5000  -0.5000   0.5000  0.0047  ! $R_2$       
 -0.4865  -0.4865   0.4865  0.0047  !             
 -0.4730  -0.4730   0.4730  0.0047  !             
 -0.4595  -0.4595   0.4595  0.0047  !             
 -0.4459  -0.4459   0.4459  0.0047  !             
 -0.4324  -0.4324   0.4324  0.0047  !             
 -0.4189  -0.4189   0.4189  0.0047  !             
 -0.4054  -0.4054   0.4054  0.0047  !             
 -0.3919  -0.3919   0.3919  0.0047  !             
 -0.3784  -0.3784   0.3784  0.0047  !             
 -0.3649  -0.3649   0.3649  0.0047  !             
 -0.3514  -0.3514   0.3514  0.0047  !             
 -0.3378  -0.3378   0.3378  0.0047  !             
 -0.3243  -0.3243   0.3243  0.0047  !             
 -0.3108  -0.3108   0.3108  0.0047  !             
 -0.2973  -0.2973   0.2973  0.0047  !             
 -0.2838  -0.2838   0.2838  0.0047  !             
 -0.2703  -0.2703   0.2703  0.0047  !             
 -0.2568  -0.2568   0.2568  0.0047  !             
 -0.2432  -0.2432   0.2432  0.0047  !             
 -0.2297  -0.2297   0.2297  0.0047  !             
 -0.2162  -0.2162   0.2162  0.0047  !             
 -0.2027  -0.2027   0.2027  0.0047  !             
 -0.1892  -0.1892   0.1892  0.0047  !             
 -0.1757  -0.1757   0.1757  0.0047  !             
 -0.1622  -0.1622   0.1622  0.0047  !             
 -0.1486  -0.1486   0.1486  0.0047  !             
 -0.1351  -0.1351   0.1351  0.0047  !             
 -0.1216  -0.1216   0.1216  0.0047  !             
 -0.1081  -0.1081   0.1081  0.0047  !             
 -0.0946  -0.0946   0.0946  0.0047  !             
 -0.0811  -0.0811   0.0811  0.0047  !             
 -0.0676  -0.0676   0.0676  0.0047  !             
 -0.0541  -0.0541   0.0541  0.0047  !             
 -0.0405  -0.0405   0.0405  0.0047  !             
 -0.0270  -0.0270   0.0270  0.0047  !             
 -0.0135  -0.0135   0.0135  0.0047  !             
  0.0000   0.0000   0.0000  0.0047  ! $\Gamma$    
  0.0000   0.0000   0.0000  0.0047  ! $\Gamma$    
 -0.0000  -0.0172   0.0172  0.0047  !             
 -0.0000  -0.0345   0.0345  0.0047  !             
 -0.0000  -0.0517   0.0517  0.0047  !             
 -0.0000  -0.0690   0.0690  0.0047  !             
 -0.0000  -0.0862   0.0862  0.0047  !             
 -0.0000  -0.1034   0.1034  0.0047  !             
 -0.0000  -0.1207   0.1207  0.0047  !             
 -0.0000  -0.1379   0.1379  0.0047  !             
 -0.0000  -0.1552   0.1552  0.0047  !             
 -0.0000  -0.1724   0.1724  0.0047  !             
 -0.0000  -0.1897   0.1897  0.0047  !             
 -0.0000  -0.2069   0.2069  0.0047  !             
 -0.0000  -0.2241   0.2241  0.0047  !             
 -0.0000  -0.2414   0.2414  0.0047  !             
 -0.0000  -0.2586   0.2586  0.0047  !             
 -0.0000  -0.2759   0.2759  0.0047  !             
 -0.0000  -0.2931   0.2931  0.0047  !             
 -0.0000  -0.3103   0.3103  0.0047  !             
 -0.0000  -0.3276   0.3276  0.0047  !             
 -0.0000  -0.3448   0.3448  0.0047  !             
 -0.0000  -0.3621   0.3621  0.0047  !             
 -0.0000  -0.3793   0.3793  0.0047  !             
 -0.0000  -0.3966   0.3966  0.0047  !             
 -0.0000  -0.4138   0.4138  0.0047  !             
 -0.0000  -0.4310   0.4310  0.0047  !             
 -0.0000  -0.4483   0.4483  0.0047  !             
 -0.0000  -0.4655   0.4655  0.0047  !             
 -0.0000  -0.4828   0.4828  0.0047  !             
 -0.0000  -0.5000   0.5000  0.0047  ! $T_2$       
 -0.5000  -0.0000   0.5000  0.0047  ! $U_2$       
 -0.4848  -0.0000   0.4848  0.0047  !             
 -0.4697  -0.0000   0.4697  0.0047  !             
 -0.4545   0.0000   0.4545  0.0047  !             
 -0.4394  -0.0000   0.4394  0.0047  !             
 -0.4242  -0.0000   0.4242  0.0047  !             
 -0.4091  -0.0000   0.4091  0.0047  !             
 -0.3939   0.0000   0.3939  0.0047  !             
 -0.3788  -0.0000   0.3788  0.0047  !             
 -0.3636  -0.0000   0.3636  0.0047  !             
 -0.3485  -0.0000   0.3485  0.0047  !             
 -0.3333  -0.0000   0.3333  0.0047  !             
 -0.3182  -0.0000   0.3182  0.0047  !             
 -0.3030   0.0000   0.3030  0.0047  !             
 -0.2879  -0.0000   0.2879  0.0047  !             
 -0.2727  -0.0000   0.2727  0.0047  !             
 -0.2576  -0.0000   0.2576  0.0047  !             
 -0.2424  -0.0000   0.2424  0.0047  !             
 -0.2273  -0.0000   0.2273  0.0047  !             
 -0.2121  -0.0000   0.2121  0.0047  !             
 -0.1970   0.0000   0.1970  0.0047  !             
 -0.1818  -0.0000   0.1818  0.0047  !             
 -0.1667  -0.0000   0.1667  0.0047  !             
 -0.1515  -0.0000   0.1515  0.0047  !             
 -0.1364  -0.0000   0.1364  0.0047  !             
 -0.1212   0.0000   0.1212  0.0047  !             
 -0.1061   0.0000   0.1061  0.0047  !             
 -0.0909   0.0000   0.0909  0.0047  !             
 -0.0758  -0.0000   0.0758  0.0047  !             
 -0.0606  -0.0000   0.0606  0.0047  !             
 -0.0455  -0.0000   0.0455  0.0047  !             
 -0.0303   0.0000   0.0303  0.0047  !             
 -0.0152   0.0000   0.0152  0.0047  !             
  0.0000   0.0000   0.0000  0.0047  ! $\Gamma$    
  0.0000   0.0000   0.0000  0.0047  ! $\Gamma$    
  0.0161  -0.0161   0.0000  0.0047  !             
  0.0323  -0.0323   0.0000  0.0047  !             
  0.0484  -0.0484   0.0000  0.0047  !             
  0.0645  -0.0645   0.0000  0.0047  !             
  0.0806  -0.0806   0.0000  0.0047  !             
  0.0968  -0.0968   0.0000  0.0047  !             
  0.1129  -0.1129   0.0000  0.0047  !             
  0.1290  -0.1290   0.0000  0.0047  !             
  0.1452  -0.1452   0.0000  0.0047  !             
  0.1613  -0.1613   0.0000  0.0047  !             
  0.1774  -0.1774   0.0000  0.0047  !             
  0.1935  -0.1935   0.0000  0.0047  !             
  0.2097  -0.2097   0.0000  0.0047  !             
  0.2258  -0.2258   0.0000  0.0047  !             
  0.2419  -0.2419   0.0000  0.0047  !             
  0.2581  -0.2581   0.0000  0.0047  !             
  0.2742  -0.2742   0.0000  0.0047  !             
  0.2903  -0.2903   0.0000  0.0047  !             
  0.3065  -0.3065   0.0000  0.0047  !             
  0.3226  -0.3226   0.0000  0.0047  !             
  0.3387  -0.3387   0.0000  0.0047  !             
  0.3548  -0.3548   0.0000  0.0047  !             
  0.3710  -0.3710   0.0000  0.0047  !             
  0.3871  -0.3871   0.0000  0.0047  !             
  0.4032  -0.4032   0.0000  0.0047  !             
  0.4194  -0.4194   0.0000  0.0047  !             
  0.4355  -0.4355   0.0000  0.0047  !             
  0.4516  -0.4516   0.0000  0.0047  !             
  0.4677  -0.4677   0.0000  0.0047  !             
  0.4839  -0.4839   0.0000  0.0047  !             
  0.5000  -0.5000   0.0000  0.0047  ! $V_2$       