Automatically generated mesh
234
Reciprocal lattice
  0.0000   0.0000   0.0000  0.0043  ! $\Gamma$    
  0.0217   0.0000   0.0000  0.0043  !             
  0.0435   0.0000   0.0000  0.0043  !             
  0.0652   0.0000   0.0000  0.0043  !             
  0.0870   0.0000   0.0000  0.0043  !             
  0.1087   0.0000   0.0000  0.0043  !             
  0.1304   0.0000   0.0000  0.0043  !             
  0.1522   0.0000   0.0000  0.0043  !             
  0.1739   0.0000   0.0000  0.0043  !             
  0.1957   0.0000   0.0000  0.0043  !             
  0.2174   0.0000   0.0000  0.0043  !             
  0.2391   0.0000   0.0000  0.0043  !             
  0.2609   0.0000   0.0000  0.0043  !             
  0.2826   0.0000   0.0000  0.0043  !             
  0.3043   0.0000   0.0000  0.0043  !             
  0.3261   0.0000   0.0000  0.0043  !             
  0.3478   0.0000   0.0000  0.0043  !             
  0.3696   0.0000   0.0000  0.0043  !             
  0.3913   0.0000   0.0000  0.0043  !             
  0.4130   0.0000   0.0000  0.0043  !             
  0.4348   0.0000   0.0000  0.0043  !             
  0.4565   0.0000   0.0000  0.0043  !             
  0.4783   0.0000   0.0000  0.0043  !             
  0.5000   0.0000   0.0000  0.0043  ! $X$         
 -0.0000   0.5000   0.0000  0.0043  ! $Y$         
 -0.0000   0.4821   0.0000  0.0043  !             
 -0.0000   0.4643   0.0000  0.0043  !             
 -0.0000   0.4464   0.0000  0.0043  !             
 -0.0000   0.4286   0.0000  0.0043  !             
 -0.0000   0.4107   0.0000  0.0043  !             
 -0.0000   0.3929   0.0000  0.0043  !             
  0.0000   0.3750   0.0000  0.0043  !             
 -0.0000   0.3571   0.0000  0.0043  !             
 -0.0000   0.3393   0.0000  0.0043  !             
 -0.0000   0.3214   0.0000  0.0043  !             
 -0.0000   0.3036   0.0000  0.0043  !             
 -0.0000   0.2857   0.0000  0.0043  !             
 -0.0000   0.2679   0.0000  0.0043  !             
 -0.0000   0.2500   0.0000  0.0043  !             
 -0.0000   0.2321   0.0000  0.0043  !             
 -0.0000   0.2143   0.0000  0.0043  !             
 -0.0000   0.1964   0.0000  0.0043  !             
 -0.0000   0.1786   0.0000  0.0043  !             
 -0.0000   0.1607   0.0000  0.0043  !             
 -0.0000   0.1429   0.0000  0.0043  !             
 -0.0000   0.1250   0.0000  0.0043  !             
  0.0000   0.1071   0.0000  0.0043  !             
  0.0000   0.0893   0.0000  0.0043  !             
  0.0000   0.0714   0.0000  0.0043  !             
 -0.0000   0.0536   0.0000  0.0043  !             
  0.0000   0.0357   0.0000  0.0043  !             
 -0.0000   0.0179   0.0000  0.0043  !             
  0.0000   0.0000   0.0000  0.0043  ! $\Gamma$    
  0.0000   0.0000   0.0000  0.0043  ! $\Gamma$    
  0.0000   0.0000   0.0161  0.0043  !             
  0.0000   0.0000   0.0323  0.0043  !             
  0.0000  -0.0000   0.0484  0.0043  !             
  0.0000   0.0000   0.0645  0.0043  !             
 -0.0000   0.0000   0.0806  0.0043  !             
  0.0000  -0.0000   0.0968  0.0043  !             
  0.0000  -0.0000   0.1129  0.0043  !             
  0.0000   0.0000   0.1290  0.0043  !             
 -0.0000  -0.0000   0.1452  0.0043  !             
 -0.0000   0.0000   0.1613  0.0043  !             
  0.0000   0.0000   0.1774  0.0043  !             
  0.0000  -0.0000   0.1935  0.0043  !             
  0.0000  -0.0000   0.2097  0.0043  !             
  0.0000  -0.0000   0.2258  0.0043  !             
  0.0000   0.0000   0.2419  0.0043  !             
  0.0000   0.0000   0.2581  0.0043  !             
  0.0000   0.0000   0.2742  0.0043  !             
 -0.0000  -0.0000   0.2903  0.0043  !             
  0.0000  -0.0000   0.3065  0.0043  !             
 -0.0000   0.0000   0.3226  0.0043  !             
  0.0000   0.0000   0.3387  0.0043  !             
  0.0000   0.0000   0.3548  0.0043  !             
  0.0000  -0.0000   0.3710  0.0043  !             
  0.0000  -0.0000   0.3871  0.0043  !             
 -0.0000  -0.0000   0.4032  0.0043  !             
  0.0000  -0.0000   0.4194  0.0043  !             
 -0.0000  -0.0000   0.4355  0.0043  !             
  0.0000  -0.0000   0.4516  0.0043  !             
  0.0000   0.0000   0.4677  0.0043  !             
  0.0000   0.0000   0.4839  0.0043  !             
 -0.0000   0.0000   0.5000  0.0043  ! $Z$         
  0.5000   0.5000   0.5000  0.0043  ! $R$         
  0.4872   0.4872   0.4872  0.0043  !             
  0.4744   0.4744   0.4744  0.0043  !             
  0.4615   0.4615   0.4615  0.0043  !             
  0.4487   0.4487   0.4487  0.0043  !             
  0.4359   0.4359   0.4359  0.0043  !             
  0.4231   0.4231   0.4231  0.0043  !             
  0.4103   0.4103   0.4103  0.0043  !             
  0.3974   0.3974   0.3974  0.0043  !             
  0.3846   0.3846   0.3846  0.0043  !             
  0.3718   0.3718   0.3718  0.0043  !             
  0.3590   0.3590   0.3590  0.0043  !             
  0.3462   0.3462   0.3462  0.0043  !             
  0.3333   0.3333   0.3333  0.0043  !             
  0.3205   0.3205   0.3205  0.0043  !             
  0.3077   0.3077   0.3077  0.0043  !             
  0.2949   0.2949   0.2949  0.0043  !             
  0.2821   0.2821   0.2821  0.0043  !             
  0.2692   0.2692   0.2692  0.0043  !             
  0.2564   0.2564   0.2564  0.0043  !             
  0.2436   0.2436   0.2436  0.0043  !             
  0.2308   0.2308   0.2308  0.0043  !             
  0.2179   0.2179   0.2179  0.0043  !             
  0.2051   0.2051   0.2051  0.0043  !             
  0.1923   0.1923   0.1923  0.0043  !             
  0.1795   0.1795   0.1795  0.0043  !             
  0.1667   0.1667   0.1667  0.0043  !             
  0.1538   0.1538   0.1538  0.0043  !             
  0.1410   0.1410   0.1410  0.0043  !             
  0.1282   0.1282   0.1282  0.0043  !             
  0.1154   0.1154   0.1154  0.0043  !             
  0.1026   0.1026   0.1026  0.0043  !             
  0.0897   0.0897   0.0897  0.0043  !             
  0.0769   0.0769   0.0769  0.0043  !             
  0.0641   0.0641   0.0641  0.0043  !             
  0.0513   0.0513   0.0513  0.0043  !             
  0.0385   0.0385   0.0385  0.0043  !             
  0.0256   0.0256   0.0256  0.0043  !             
  0.0128   0.0128   0.0128  0.0043  !             
  0.0000   0.0000   0.0000  0.0043  ! $\Gamma$    
  0.0000   0.0000   0.0000  0.0043  ! $\Gamma$    
  0.0000   0.0132   0.0132  0.0043  !             
  0.0000   0.0263   0.0263  0.0043  !             
  0.0000   0.0395   0.0395  0.0043  !             
  0.0000   0.0526   0.0526  0.0043  !             
  0.0000   0.0658   0.0658  0.0043  !             
  0.0000   0.0789   0.0789  0.0043  !             
 -0.0000   0.0921   0.0921  0.0043  !             
  0.0000   0.1053   0.1053  0.0043  !             
 -0.0000   0.1184   0.1184  0.0043  !             
  0.0000   0.1316   0.1316  0.0043  !             
  0.0000   0.1447   0.1447  0.0043  !             
  0.0000   0.1579   0.1579  0.0043  !             
 -0.0000   0.1711   0.1711  0.0043  !             
 -0.0000   0.1842   0.1842  0.0043  !             
 -0.0000   0.1974   0.1974  0.0043  !             
  0.0000   0.2105   0.2105  0.0043  !             
 -0.0000   0.2237   0.2237  0.0043  !             
 -0.0000   0.2368   0.2368  0.0043  !             
 -0.0000   0.2500   0.2500  0.0043  !             
  0.0000   0.2632   0.2632  0.0043  !             
  0.0000   0.2763   0.2763  0.0043  !             
  0.0000   0.2895   0.2895  0.0043  !             
  0.0000   0.3026   0.3026  0.0043  !             
  0.0000   0.3158   0.3158  0.0043  !             
 -0.0000   0.3289   0.3289  0.0043  !             
 -0.0000   0.3421   0.3421  0.0043  !             
 -0.0000   0.3553   0.3553  0.0043  !             
 -0.0000   0.3684   0.3684  0.0043  !             
 -0.0000   0.3816   0.3816  0.0043  !             
 -0.0000   0.3947   0.3947  0.0043  !             
 -0.0000   0.4079   0.4079  0.0043  !             
  0.0000   0.4211   0.4211  0.0043  !             
  0.0000   0.4342   0.4342  0.0043  !             
 -0.0000   0.4474   0.4474  0.0043  !             
 -0.0000   0.4605   0.4605  0.0043  !             
 -0.0000   0.4737   0.4737  0.0043  !             
  0.0000   0.4868   0.4868  0.0043  !             
 -0.0000   0.5000   0.5000  0.0043  ! $T$         
  0.5000   0.0000   0.5000  0.0043  ! $U$         
  0.4857  -0.0000   0.4857  0.0043  !             
  0.4714   0.0000   0.4714  0.0043  !             
  0.4571   0.0000   0.4571  0.0043  !             
  0.4429   0.0000   0.4429  0.0043  !             
  0.4286   0.0000   0.4286  0.0043  !             
  0.4143   0.0000   0.4143  0.0043  !             
  0.4000  -0.0000   0.4000  0.0043  !             
  0.3857  -0.0000   0.3857  0.0043  !             
  0.3714   0.0000   0.3714  0.0043  !             
  0.3571   0.0000   0.3571  0.0043  !             
  0.3429   0.0000   0.3429  0.0043  !             
  0.3286   0.0000   0.3286  0.0043  !             
  0.3143   0.0000   0.3143  0.0043  !             
  0.3000   0.0000   0.3000  0.0043  !             
  0.2857   0.0000   0.2857  0.0043  !             
  0.2714   0.0000   0.2714  0.0043  !             
  0.2571  -0.0000   0.2571  0.0043  !             
  0.2429   0.0000   0.2429  0.0043  !             
  0.2286   0.0000   0.2286  0.0043  !             
  0.2143   0.0000   0.2143  0.0043  !             
  0.2000   0.0000   0.2000  0.0043  !             
  0.1857   0.0000   0.1857  0.0043  !             
  0.1714   0.0000   0.1714  0.0043  !             
  0.1571   0.0000   0.1571  0.0043  !             
  0.1429   0.0000   0.1429  0.0043  !             
  0.1286   0.0000   0.1286  0.0043  !             
  0.1143  -0.0000   0.1143  0.0043  !             
  0.1000  -0.0000   0.1000  0.0043  !             
  0.0857   0.0000   0.0857  0.0043  !             
  0.0714   0.0000   0.0714  0.0043  !             
  0.0571   0.0000   0.0571  0.0043  !             
  0.0429  -0.0000   0.0429  0.0043  !             
  0.0286  -0.0000   0.0286  0.0043  !             
  0.0143  -0.0000   0.0143  0.0043  !             
  0.0000   0.0000   0.0000  0.0043  ! $\Gamma$    
  0.0000   0.0000   0.0000  0.0043  ! $\Gamma$    
  0.0152   0.0152   0.0000  0.0043  !             
  0.0303   0.0303   0.0000  0.0043  !             
  0.0455   0.0455   0.0000  0.0043  !             
  0.0606   0.0606   0.0000  0.0043  !             
  0.0758   0.0758   0.0000  0.0043  !             
  0.0909   0.0909   0.0000  0.0043  !             
  0.1061   0.1061   0.0000  0.0043  !             
  0.1212   0.1212   0.0000  0.0043  !             
  0.1364   0.1364   0.0000  0.0043  !             
  0.1515   0.1515   0.0000  0.0043  !             
  0.1667   0.1667   0.0000  0.0043  !             
  0.1818   0.1818   0.0000  0.0043  !             
  0.1970   0.1970   0.0000  0.0043  !             
  0.2121   0.2121   0.0000  0.0043  !             
  0.2273   0.2273   0.0000  0.0043  !             
  0.2424   0.2424   0.0000  0.0043  !             
  0.2576   0.2576   0.0000  0.0043  !             
  0.2727   0.2727   0.0000  0.0043  !             
  0.2879   0.2879   0.0000  0.0043  !             
  0.3030   0.3030   0.0000  0.0043  !             
  0.3182   0.3182   0.0000  0.0043  !             
  0.3333   0.3333   0.0000  0.0043  !             
  0.3485   0.3485   0.0000  0.0043  !             
  0.3636   0.3636   0.0000  0.0043  !             
  0.3788   0.3788   0.0000  0.0043  !             
  0.3939   0.3939   0.0000  0.0043  !             
  0.4091   0.4091   0.0000  0.0043  !             
  0.4242   0.4242   0.0000  0.0043  !             
  0.4394   0.4394   0.0000  0.0043  !             
  0.4545   0.4545   0.0000  0.0043  !             
  0.4697   0.4697   0.0000  0.0043  !             
  0.4848   0.4848   0.0000  0.0043  !             
  0.5000   0.5000   0.0000  0.0043  ! $V$         