Automatically generated mesh
283
Reciprocal lattice
  0.0000   0.0000   0.0000  0.0035  ! $\Gamma$    
  0.0208   0.0208   0.0208  0.0035  !             
  0.0417   0.0417   0.0417  0.0035  !             
  0.0625   0.0625   0.0625  0.0035  !             
  0.0833   0.0833   0.0833  0.0035  !             
  0.1042   0.1042   0.1042  0.0035  !             
  0.1250   0.1250   0.1250  0.0035  !             
  0.1458   0.1458   0.1458  0.0035  !             
  0.1667   0.1667   0.1667  0.0035  !             
  0.1875   0.1875   0.1875  0.0035  !             
  0.2083   0.2083   0.2083  0.0035  !             
  0.2292   0.2292   0.2292  0.0035  !             
  0.2500   0.2500   0.2500  0.0035  !             
  0.2708   0.2708   0.2708  0.0035  !             
  0.2917   0.2917   0.2917  0.0035  !             
  0.3125   0.3125   0.3125  0.0035  !             
  0.3333   0.3333   0.3333  0.0035  !             
  0.3542   0.3542   0.3542  0.0035  !             
  0.3750   0.3750   0.3750  0.0035  !             
  0.3958   0.3958   0.3958  0.0035  !             
  0.4167   0.4167   0.4167  0.0035  !             
  0.4375   0.4375   0.4375  0.0035  !             
  0.4583   0.4583   0.4583  0.0035  !             
  0.4792   0.4792   0.4792  0.0035  !             
  0.5000   0.5000   0.5000  0.0035  ! $T$         
  0.5000   0.5000   0.5000  0.0035  ! $T$         
  0.5064   0.4936   0.5000  0.0035  !             
  0.5128   0.4872   0.5000  0.0035  !             
  0.5192   0.4808   0.5000  0.0035  !             
  0.5255   0.4745   0.5000  0.0035  !             
  0.5319   0.4681   0.5000  0.0035  !             
  0.5383   0.4617   0.5000  0.0035  !             
  0.5447   0.4553   0.5000  0.0035  !             
  0.5511   0.4489   0.5000  0.0035  !             
  0.5575   0.4425   0.5000  0.0035  !             
  0.5638   0.4362   0.5000  0.0035  !             
  0.5702   0.4298   0.5000  0.0035  !             
  0.5766   0.4234   0.5000  0.0035  !             
  0.5830   0.4170   0.5000  0.0035  !             
  0.5894   0.4106   0.5000  0.0035  !             
  0.5958   0.4042   0.5000  0.0035  !             
  0.6021   0.3979   0.5000  0.0035  !             
  0.6085   0.3915   0.5000  0.0035  !             
  0.6149   0.3851   0.5000  0.0035  !             
  0.6213   0.3787   0.5000  0.0035  !             
  0.6277   0.3723   0.5000  0.0035  !             
  0.6341   0.3659   0.5000  0.0035  !             
  0.6405   0.3595   0.5000  0.0035  !             
  0.6468   0.3532   0.5000  0.0035  !             
  0.6532   0.3468   0.5000  0.0035  !             
  0.6596   0.3404   0.5000  0.0035  !             
  0.6660   0.3340   0.5000  0.0035  !             
  0.6724   0.3276   0.5000  0.0035  !             
  0.6788   0.3212   0.5000  0.0035  !             
  0.6851   0.3149   0.5000  0.0035  !             
  0.6915   0.3085   0.5000  0.0035  !             
  0.6979   0.3021   0.5000  0.0035  !             
  0.7043   0.2957   0.5000  0.0035  !             
  0.7107   0.2893   0.5000  0.0035  !             
  0.7171   0.2829   0.5000  0.0035  !             
  0.7234   0.2766   0.5000  0.0035  !             
  0.7298   0.2702   0.5000  0.0035  !             
  0.7362   0.2638   0.5000  0.0035  !             
  0.7426   0.2574   0.5000  0.0035  !             
  0.7490   0.2510   0.5000  0.0035  !             
  0.7554   0.2446   0.5000  0.0035  !             
  0.7618   0.2382   0.5000  0.0035  !             
  0.7681   0.2319   0.5000  0.0035  !             
  0.7745   0.2255   0.5000  0.0035  !             
  0.7809   0.2191   0.5000  0.0035  !             
  0.7873   0.2127   0.5000  0.0035  !             
  0.7937   0.2063   0.5000  0.0035  !             
  0.8001   0.1999   0.5000  0.0035  !             
  0.8064   0.1936   0.5000  0.0035  !             
  0.8128   0.1872   0.5000  0.0035  ! $H_2$       
  0.5000  -0.1872   0.1872  0.0035  ! $H_0$       
  0.5000  -0.1809   0.1809  0.0035  !             
  0.5000  -0.1747   0.1747  0.0035  !             
  0.5000  -0.1685   0.1685  0.0035  !             
  0.5000  -0.1622   0.1622  0.0035  !             
  0.5000  -0.1560   0.1560  0.0035  !             
  0.5000  -0.1497   0.1497  0.0035  !             
  0.5000  -0.1435   0.1435  0.0035  !             
  0.5000  -0.1373   0.1373  0.0035  !             
  0.5000  -0.1310   0.1310  0.0035  !             
  0.5000  -0.1248   0.1248  0.0035  !             
  0.5000  -0.1185   0.1185  0.0035  !             
  0.5000  -0.1123   0.1123  0.0035  !             
  0.5000  -0.1061   0.1061  0.0035  !             
  0.5000  -0.0998   0.0998  0.0035  !             
  0.5000  -0.0936   0.0936  0.0035  !             
  0.5000  -0.0873   0.0873  0.0035  !             
  0.5000  -0.0811   0.0811  0.0035  !             
  0.5000  -0.0749   0.0749  0.0035  !             
  0.5000  -0.0686   0.0686  0.0035  !             
  0.5000  -0.0624   0.0624  0.0035  !             
  0.5000  -0.0562   0.0562  0.0035  !             
  0.5000  -0.0499   0.0499  0.0035  !             
  0.5000  -0.0437   0.0437  0.0035  !             
  0.5000  -0.0374   0.0374  0.0035  !             
  0.5000  -0.0312   0.0312  0.0035  !             
  0.5000  -0.0250   0.0250  0.0035  !             
  0.5000  -0.0187   0.0187  0.0035  !             
  0.5000  -0.0125   0.0125  0.0035  !             
  0.5000  -0.0062   0.0062  0.0035  !             
  0.5000  -0.0000  -0.0000  0.0035  ! $L$         
  0.5000  -0.0000  -0.0000  0.0035  ! $L$         
  0.4891  -0.0000  -0.0000  0.0035  !             
  0.4783  -0.0000  -0.0000  0.0035  !             
  0.4674  -0.0000  -0.0000  0.0035  !             
  0.4565  -0.0000  -0.0000  0.0035  !             
  0.4457  -0.0000  -0.0000  0.0035  !             
  0.4348  -0.0000  -0.0000  0.0035  !             
  0.4239  -0.0000  -0.0000  0.0035  !             
  0.4130  -0.0000  -0.0000  0.0035  !             
  0.4022  -0.0000   0.0000  0.0035  !             
  0.3913  -0.0000  -0.0000  0.0035  !             
  0.3804  -0.0000  -0.0000  0.0035  !             
  0.3696  -0.0000  -0.0000  0.0035  !             
  0.3587  -0.0000  -0.0000  0.0035  !             
  0.3478  -0.0000   0.0000  0.0035  !             
  0.3370  -0.0000  -0.0000  0.0035  !             
  0.3261  -0.0000  -0.0000  0.0035  !             
  0.3152  -0.0000  -0.0000  0.0035  !             
  0.3043  -0.0000  -0.0000  0.0035  !             
  0.2935  -0.0000  -0.0000  0.0035  !             
  0.2826  -0.0000  -0.0000  0.0035  !             
  0.2717  -0.0000  -0.0000  0.0035  !             
  0.2609  -0.0000  -0.0000  0.0035  !             
  0.2500  -0.0000  -0.0000  0.0035  !             
  0.2391  -0.0000  -0.0000  0.0035  !             
  0.2283  -0.0000  -0.0000  0.0035  !             
  0.2174  -0.0000  -0.0000  0.0035  !             
  0.2065  -0.0000  -0.0000  0.0035  !             
  0.1957  -0.0000  -0.0000  0.0035  !             
  0.1848  -0.0000  -0.0000  0.0035  !             
  0.1739  -0.0000   0.0000  0.0035  !             
  0.1630  -0.0000  -0.0000  0.0035  !             
  0.1522   0.0000  -0.0000  0.0035  !             
  0.1413  -0.0000  -0.0000  0.0035  !             
  0.1304  -0.0000  -0.0000  0.0035  !             
  0.1196  -0.0000  -0.0000  0.0035  !             
  0.1087  -0.0000  -0.0000  0.0035  !             
  0.0978  -0.0000   0.0000  0.0035  !             
  0.0870  -0.0000  -0.0000  0.0035  !             
  0.0761   0.0000  -0.0000  0.0035  !             
  0.0652  -0.0000  -0.0000  0.0035  !             
  0.0543   0.0000  -0.0000  0.0035  !             
  0.0435  -0.0000   0.0000  0.0035  !             
  0.0326  -0.0000   0.0000  0.0035  !             
  0.0217  -0.0000  -0.0000  0.0035  !             
  0.0109   0.0000   0.0000  0.0035  !             
  0.0000   0.0000   0.0000  0.0035  ! $\Gamma$    
  0.0000   0.0000   0.0000  0.0035  ! $\Gamma$    
  0.0064  -0.0064  -0.0000  0.0035  !             
  0.0127  -0.0127  -0.0000  0.0035  !             
  0.0191  -0.0191  -0.0000  0.0035  !             
  0.0255  -0.0255  -0.0000  0.0035  !             
  0.0318  -0.0318  -0.0000  0.0035  !             
  0.0382  -0.0382  -0.0000  0.0035  !             
  0.0445  -0.0445  -0.0000  0.0035  !             
  0.0509  -0.0509  -0.0000  0.0035  !             
  0.0573  -0.0573  -0.0000  0.0035  !             
  0.0636  -0.0636  -0.0000  0.0035  !             
  0.0700  -0.0700  -0.0000  0.0035  !             
  0.0764  -0.0764  -0.0000  0.0035  !             
  0.0827  -0.0827  -0.0000  0.0035  !             
  0.0891  -0.0891  -0.0000  0.0035  !             
  0.0954  -0.0954  -0.0000  0.0035  !             
  0.1018  -0.1018  -0.0000  0.0035  !             
  0.1082  -0.1082  -0.0000  0.0035  !             
  0.1145  -0.1145  -0.0000  0.0035  !             
  0.1209  -0.1209  -0.0000  0.0035  !             
  0.1273  -0.1273  -0.0000  0.0035  !             
  0.1336  -0.1336  -0.0000  0.0035  !             
  0.1400  -0.1400  -0.0000  0.0035  !             
  0.1463  -0.1463  -0.0000  0.0035  !             
  0.1527  -0.1527  -0.0000  0.0035  !             
  0.1591  -0.1591  -0.0000  0.0035  !             
  0.1654  -0.1654  -0.0000  0.0035  !             
  0.1718  -0.1718  -0.0000  0.0035  !             
  0.1782  -0.1782  -0.0000  0.0035  !             
  0.1845  -0.1845  -0.0000  0.0035  !             
  0.1909  -0.1909  -0.0000  0.0035  !             
  0.1972  -0.1972  -0.0000  0.0035  !             
  0.2036  -0.2036  -0.0000  0.0035  !             
  0.2100  -0.2100  -0.0000  0.0035  !             
  0.2163  -0.2163  -0.0000  0.0035  !             
  0.2227  -0.2227  -0.0000  0.0035  !             
  0.2291  -0.2291  -0.0000  0.0035  !             
  0.2354  -0.2354  -0.0000  0.0035  !             
  0.2418  -0.2418  -0.0000  0.0035  !             
  0.2481  -0.2481  -0.0000  0.0035  !             
  0.2545  -0.2545  -0.0000  0.0035  !             
  0.2609  -0.2609  -0.0000  0.0035  !             
  0.2672  -0.2672  -0.0000  0.0035  !             
  0.2736  -0.2736  -0.0000  0.0035  !             
  0.2800  -0.2800  -0.0000  0.0035  !             
  0.2863  -0.2863  -0.0000  0.0035  !             
  0.2927  -0.2927  -0.0000  0.0035  !             
  0.2990  -0.2990  -0.0000  0.0035  !             
  0.3054  -0.3054  -0.0000  0.0035  !             
  0.3118  -0.3118  -0.0000  0.0035  !             
  0.3181  -0.3181  -0.0000  0.0035  !             
  0.3245  -0.3245  -0.0000  0.0035  !             
  0.3309  -0.3309  -0.0000  0.0035  !             
  0.3372  -0.3372  -0.0000  0.0035  !             
  0.3436  -0.3436  -0.0000  0.0035  ! $S_0$       
  0.6564  -0.0000   0.3436  0.0035  ! $S_2$       
  0.6502  -0.0000   0.3498  0.0035  !             
  0.6439  -0.0000   0.3561  0.0035  !             
  0.6376  -0.0000   0.3624  0.0035  !             
  0.6314   0.0000   0.3686  0.0035  !             
  0.6251  -0.0000   0.3749  0.0035  !             
  0.6189  -0.0000   0.3811  0.0035  !             
  0.6126   0.0000   0.3874  0.0035  !             
  0.6064  -0.0000   0.3936  0.0035  !             
  0.6001  -0.0000   0.3999  0.0035  !             
  0.5938   0.0000   0.4062  0.0035  !             
  0.5876  -0.0000   0.4124  0.0035  !             
  0.5813  -0.0000   0.4187  0.0035  !             
  0.5751  -0.0000   0.4249  0.0035  !             
  0.5688  -0.0000   0.4312  0.0035  !             
  0.5626  -0.0000   0.4374  0.0035  !             
  0.5563  -0.0000   0.4437  0.0035  !             
  0.5501  -0.0000   0.4499  0.0035  !             
  0.5438  -0.0000   0.4562  0.0035  !             
  0.5375  -0.0000   0.4625  0.0035  !             
  0.5313  -0.0000   0.4687  0.0035  !             
  0.5250  -0.0000   0.4750  0.0035  !             
  0.5188  -0.0000   0.4812  0.0035  !             
  0.5125  -0.0000   0.4875  0.0035  !             
  0.5063  -0.0000   0.4937  0.0035  !             
  0.5000  -0.0000   0.5000  0.0035  ! $F$         
  0.5000  -0.0000   0.5000  0.0035  ! $F$         
  0.4896  -0.0000   0.4896  0.0035  !             
  0.4792  -0.0000   0.4792  0.0035  !             
  0.4688  -0.0000   0.4688  0.0035  !             
  0.4583   0.0000   0.4583  0.0035  !             
  0.4479  -0.0000   0.4479  0.0035  !             
  0.4375  -0.0000   0.4375  0.0035  !             
  0.4271   0.0000   0.4271  0.0035  !             
  0.4167  -0.0000   0.4167  0.0035  !             
  0.4062  -0.0000   0.4062  0.0035  !             
  0.3958  -0.0000   0.3958  0.0035  !             
  0.3854  -0.0000   0.3854  0.0035  !             
  0.3750  -0.0000   0.3750  0.0035  !             
  0.3646  -0.0000   0.3646  0.0035  !             
  0.3542  -0.0000   0.3542  0.0035  !             
  0.3437  -0.0000   0.3437  0.0035  !             
  0.3333   0.0000   0.3333  0.0035  !             
  0.3229  -0.0000   0.3229  0.0035  !             
  0.3125  -0.0000   0.3125  0.0035  !             
  0.3021  -0.0000   0.3021  0.0035  !             
  0.2917  -0.0000   0.2917  0.0035  !             
  0.2812  -0.0000   0.2812  0.0035  !             
  0.2708  -0.0000   0.2708  0.0035  !             
  0.2604  -0.0000   0.2604  0.0035  !             
  0.2500  -0.0000   0.2500  0.0035  !             
  0.2396  -0.0000   0.2396  0.0035  !             
  0.2292   0.0000   0.2292  0.0035  !             
  0.2187  -0.0000   0.2187  0.0035  !             
  0.2083  -0.0000   0.2083  0.0035  !             
  0.1979  -0.0000   0.1979  0.0035  !             
  0.1875  -0.0000   0.1875  0.0035  !             
  0.1771  -0.0000   0.1771  0.0035  !             
  0.1667  -0.0000   0.1667  0.0035  !             
  0.1563  -0.0000   0.1563  0.0035  !             
  0.1458   0.0000   0.1458  0.0035  !             
  0.1354   0.0000   0.1354  0.0035  !             
  0.1250  -0.0000   0.1250  0.0035  !             
  0.1146   0.0000   0.1146  0.0035  !             
  0.1042  -0.0000   0.1042  0.0035  !             
  0.0938  -0.0000   0.0938  0.0035  !             
  0.0833   0.0000   0.0833  0.0035  !             
  0.0729  -0.0000   0.0729  0.0035  !             
  0.0625  -0.0000   0.0625  0.0035  !             
  0.0521  -0.0000   0.0521  0.0035  !             
  0.0417   0.0000   0.0417  0.0035  !             
  0.0312   0.0000   0.0312  0.0035  !             
  0.0208   0.0000   0.0208  0.0035  !             
  0.0104  -0.0000   0.0104  0.0035  !             
  0.0000   0.0000   0.0000  0.0035  ! $\Gamma$    