Automatically generated mesh
244
Reciprocal lattice
  0.0000   0.0000   0.0000  0.0041  ! $\Gamma$    
  0.0200   0.0000   0.0000  0.0041  !             
  0.0400   0.0000   0.0000  0.0041  !             
  0.0600   0.0000   0.0000  0.0041  !             
  0.0800   0.0000   0.0000  0.0041  !             
  0.1000   0.0000   0.0000  0.0041  !             
  0.1200   0.0000   0.0000  0.0041  !             
  0.1400   0.0000   0.0000  0.0041  !             
  0.1600   0.0000   0.0000  0.0041  !             
  0.1800   0.0000   0.0000  0.0041  !             
  0.2000   0.0000   0.0000  0.0041  !             
  0.2200   0.0000   0.0000  0.0041  !             
  0.2400   0.0000   0.0000  0.0041  !             
  0.2600   0.0000   0.0000  0.0041  !             
  0.2800   0.0000   0.0000  0.0041  !             
  0.3000   0.0000   0.0000  0.0041  !             
  0.3200   0.0000   0.0000  0.0041  !             
  0.3400   0.0000   0.0000  0.0041  !             
  0.3600   0.0000   0.0000  0.0041  !             
  0.3800   0.0000   0.0000  0.0041  !             
  0.4000   0.0000   0.0000  0.0041  !             
  0.4200   0.0000   0.0000  0.0041  !             
  0.4400   0.0000   0.0000  0.0041  !             
  0.4600   0.0000   0.0000  0.0041  !             
  0.4800   0.0000   0.0000  0.0041  !             
  0.5000   0.0000   0.0000  0.0041  ! $X$         
  0.0000   0.5000   0.0000  0.0041  ! $Y$         
  0.0000   0.4821   0.0000  0.0041  !             
  0.0000   0.4643   0.0000  0.0041  !             
  0.0000   0.4464   0.0000  0.0041  !             
  0.0000   0.4286   0.0000  0.0041  !             
  0.0000   0.4107   0.0000  0.0041  !             
  0.0000   0.3929   0.0000  0.0041  !             
  0.0000   0.3750   0.0000  0.0041  !             
  0.0000   0.3571   0.0000  0.0041  !             
  0.0000   0.3393   0.0000  0.0041  !             
  0.0000   0.3214   0.0000  0.0041  !             
 -0.0000   0.3036   0.0000  0.0041  !             
  0.0000   0.2857   0.0000  0.0041  !             
  0.0000   0.2679   0.0000  0.0041  !             
  0.0000   0.2500   0.0000  0.0041  !             
  0.0000   0.2321   0.0000  0.0041  !             
  0.0000   0.2143   0.0000  0.0041  !             
  0.0000   0.1964   0.0000  0.0041  !             
  0.0000   0.1786   0.0000  0.0041  !             
 -0.0000   0.1607   0.0000  0.0041  !             
  0.0000   0.1429   0.0000  0.0041  !             
 -0.0000   0.1250   0.0000  0.0041  !             
 -0.0000   0.1071   0.0000  0.0041  !             
  0.0000   0.0893   0.0000  0.0041  !             
  0.0000   0.0714   0.0000  0.0041  !             
  0.0000   0.0536   0.0000  0.0041  !             
  0.0000   0.0357   0.0000  0.0041  !             
  0.0000   0.0179   0.0000  0.0041  !             
  0.0000   0.0000   0.0000  0.0041  ! $\Gamma$    
  0.0000   0.0000   0.0000  0.0041  ! $\Gamma$    
  0.0000   0.0000   0.0167  0.0041  !             
  0.0000   0.0000   0.0333  0.0041  !             
  0.0000   0.0000   0.0500  0.0041  !             
  0.0000   0.0000   0.0667  0.0041  !             
  0.0000  -0.0000   0.0833  0.0041  !             
  0.0000   0.0000   0.1000  0.0041  !             
  0.0000   0.0000   0.1167  0.0041  !             
  0.0000   0.0000   0.1333  0.0041  !             
  0.0000   0.0000   0.1500  0.0041  !             
  0.0000  -0.0000   0.1667  0.0041  !             
  0.0000  -0.0000   0.1833  0.0041  !             
  0.0000   0.0000   0.2000  0.0041  !             
  0.0000   0.0000   0.2167  0.0041  !             
  0.0000   0.0000   0.2333  0.0041  !             
  0.0000   0.0000   0.2500  0.0041  !             
  0.0000   0.0000   0.2667  0.0041  !             
 -0.0000   0.0000   0.2833  0.0041  !             
  0.0000   0.0000   0.3000  0.0041  !             
 -0.0000   0.0000   0.3167  0.0041  !             
  0.0000  -0.0000   0.3333  0.0041  !             
 -0.0000   0.0000   0.3500  0.0041  !             
  0.0000  -0.0000   0.3667  0.0041  !             
 -0.0000   0.0000   0.3833  0.0041  !             
  0.0000   0.0000   0.4000  0.0041  !             
  0.0000   0.0000   0.4167  0.0041  !             
  0.0000   0.0000   0.4333  0.0041  !             
  0.0000   0.0000   0.4500  0.0041  !             
  0.0000   0.0000   0.4667  0.0041  !             
  0.0000   0.0000   0.4833  0.0041  !             
  0.0000   0.0000   0.5000  0.0041  ! $Z$         
  0.5000   0.5000   0.5000  0.0041  ! $R$         
  0.4884   0.4884   0.4884  0.0041  !             
  0.4767   0.4767   0.4767  0.0041  !             
  0.4651   0.4651   0.4651  0.0041  !             
  0.4535   0.4535   0.4535  0.0041  !             
  0.4419   0.4419   0.4419  0.0041  !             
  0.4302   0.4302   0.4302  0.0041  !             
  0.4186   0.4186   0.4186  0.0041  !             
  0.4070   0.4070   0.4070  0.0041  !             
  0.3953   0.3953   0.3953  0.0041  !             
  0.3837   0.3837   0.3837  0.0041  !             
  0.3721   0.3721   0.3721  0.0041  !             
  0.3605   0.3605   0.3605  0.0041  !             
  0.3488   0.3488   0.3488  0.0041  !             
  0.3372   0.3372   0.3372  0.0041  !             
  0.3256   0.3256   0.3256  0.0041  !             
  0.3140   0.3140   0.3140  0.0041  !             
  0.3023   0.3023   0.3023  0.0041  !             
  0.2907   0.2907   0.2907  0.0041  !             
  0.2791   0.2791   0.2791  0.0041  !             
  0.2674   0.2674   0.2674  0.0041  !             
  0.2558   0.2558   0.2558  0.0041  !             
  0.2442   0.2442   0.2442  0.0041  !             
  0.2326   0.2326   0.2326  0.0041  !             
  0.2209   0.2209   0.2209  0.0041  !             
  0.2093   0.2093   0.2093  0.0041  !             
  0.1977   0.1977   0.1977  0.0041  !             
  0.1860   0.1860   0.1860  0.0041  !             
  0.1744   0.1744   0.1744  0.0041  !             
  0.1628   0.1628   0.1628  0.0041  !             
  0.1512   0.1512   0.1512  0.0041  !             
  0.1395   0.1395   0.1395  0.0041  !             
  0.1279   0.1279   0.1279  0.0041  !             
  0.1163   0.1163   0.1163  0.0041  !             
  0.1047   0.1047   0.1047  0.0041  !             
  0.0930   0.0930   0.0930  0.0041  !             
  0.0814   0.0814   0.0814  0.0041  !             
  0.0698   0.0698   0.0698  0.0041  !             
  0.0581   0.0581   0.0581  0.0041  !             
  0.0465   0.0465   0.0465  0.0041  !             
  0.0349   0.0349   0.0349  0.0041  !             
  0.0233   0.0233   0.0233  0.0041  !             
  0.0116   0.0116   0.0116  0.0041  !             
  0.0000   0.0000   0.0000  0.0041  ! $\Gamma$    
  0.0000   0.0000   0.0000  0.0041  ! $\Gamma$    
  0.0000   0.0132   0.0132  0.0041  !             
  0.0000   0.0263   0.0263  0.0041  !             
  0.0000   0.0395   0.0395  0.0041  !             
  0.0000   0.0526   0.0526  0.0041  !             
  0.0000   0.0658   0.0658  0.0041  !             
  0.0000   0.0789   0.0789  0.0041  !             
  0.0000   0.0921   0.0921  0.0041  !             
  0.0000   0.1053   0.1053  0.0041  !             
 -0.0000   0.1184   0.1184  0.0041  !             
  0.0000   0.1316   0.1316  0.0041  !             
  0.0000   0.1447   0.1447  0.0041  !             
  0.0000   0.1579   0.1579  0.0041  !             
  0.0000   0.1711   0.1711  0.0041  !             
  0.0000   0.1842   0.1842  0.0041  !             
 -0.0000   0.1974   0.1974  0.0041  !             
  0.0000   0.2105   0.2105  0.0041  !             
  0.0000   0.2237   0.2237  0.0041  !             
 -0.0000   0.2368   0.2368  0.0041  !             
  0.0000   0.2500   0.2500  0.0041  !             
  0.0000   0.2632   0.2632  0.0041  !             
  0.0000   0.2763   0.2763  0.0041  !             
  0.0000   0.2895   0.2895  0.0041  !             
  0.0000   0.3026   0.3026  0.0041  !             
  0.0000   0.3158   0.3158  0.0041  !             
  0.0000   0.3289   0.3289  0.0041  !             
  0.0000   0.3421   0.3421  0.0041  !             
  0.0000   0.3553   0.3553  0.0041  !             
  0.0000   0.3684   0.3684  0.0041  !             
 -0.0000   0.3816   0.3816  0.0041  !             
 -0.0000   0.3947   0.3947  0.0041  !             
  0.0000   0.4079   0.4079  0.0041  !             
  0.0000   0.4211   0.4211  0.0041  !             
  0.0000   0.4342   0.4342  0.0041  !             
  0.0000   0.4474   0.4474  0.0041  !             
  0.0000   0.4605   0.4605  0.0041  !             
 -0.0000   0.4737   0.4737  0.0041  !             
 -0.0000   0.4868   0.4868  0.0041  !             
  0.0000   0.5000   0.5000  0.0041  ! $T$         
  0.5000   0.0000   0.5000  0.0041  ! $U$         
  0.4865   0.0000   0.4865  0.0041  !             
  0.4730  -0.0000   0.4730  0.0041  !             
  0.4595  -0.0000   0.4595  0.0041  !             
  0.4459   0.0000   0.4459  0.0041  !             
  0.4324   0.0000   0.4324  0.0041  !             
  0.4189   0.0000   0.4189  0.0041  !             
  0.4054   0.0000   0.4054  0.0041  !             
  0.3919   0.0000   0.3919  0.0041  !             
  0.3784  -0.0000   0.3784  0.0041  !             
  0.3649  -0.0000   0.3649  0.0041  !             
  0.3514   0.0000   0.3514  0.0041  !             
  0.3378   0.0000   0.3378  0.0041  !             
  0.3243   0.0000   0.3243  0.0041  !             
  0.3108   0.0000   0.3108  0.0041  !             
  0.2973   0.0000   0.2973  0.0041  !             
  0.2838   0.0000   0.2838  0.0041  !             
  0.2703  -0.0000   0.2703  0.0041  !             
  0.2568   0.0000   0.2568  0.0041  !             
  0.2432   0.0000   0.2432  0.0041  !             
  0.2297  -0.0000   0.2297  0.0041  !             
  0.2162  -0.0000   0.2162  0.0041  !             
  0.2027   0.0000   0.2027  0.0041  !             
  0.1892   0.0000   0.1892  0.0041  !             
  0.1757  -0.0000   0.1757  0.0041  !             
  0.1622   0.0000   0.1622  0.0041  !             
  0.1486   0.0000   0.1486  0.0041  !             
  0.1351  -0.0000   0.1351  0.0041  !             
  0.1216  -0.0000   0.1216  0.0041  !             
  0.1081   0.0000   0.1081  0.0041  !             
  0.0946   0.0000   0.0946  0.0041  !             
  0.0811   0.0000   0.0811  0.0041  !             
  0.0676   0.0000   0.0676  0.0041  !             
  0.0541  -0.0000   0.0541  0.0041  !             
  0.0405  -0.0000   0.0405  0.0041  !             
  0.0270   0.0000   0.0270  0.0041  !             
  0.0135  -0.0000   0.0135  0.0041  !             
  0.0000   0.0000   0.0000  0.0041  ! $\Gamma$    
  0.0000   0.0000   0.0000  0.0041  ! $\Gamma$    
  0.0139   0.0139   0.0000  0.0041  !             
  0.0278   0.0278   0.0000  0.0041  !             
  0.0417   0.0417   0.0000  0.0041  !             
  0.0556   0.0556   0.0000  0.0041  !             
  0.0694   0.0694   0.0000  0.0041  !             
  0.0833   0.0833   0.0000  0.0041  !             
  0.0972   0.0972   0.0000  0.0041  !             
  0.1111   0.1111   0.0000  0.0041  !             
  0.1250   0.1250   0.0000  0.0041  !             
  0.1389   0.1389   0.0000  0.0041  !             
  0.1528   0.1528   0.0000  0.0041  !             
  0.1667   0.1667   0.0000  0.0041  !             
  0.1806   0.1806   0.0000  0.0041  !             
  0.1944   0.1944   0.0000  0.0041  !             
  0.2083   0.2083   0.0000  0.0041  !             
  0.2222   0.2222   0.0000  0.0041  !             
  0.2361   0.2361   0.0000  0.0041  !             
  0.2500   0.2500   0.0000  0.0041  !             
  0.2639   0.2639   0.0000  0.0041  !             
  0.2778   0.2778   0.0000  0.0041  !             
  0.2917   0.2917   0.0000  0.0041  !             
  0.3056   0.3056   0.0000  0.0041  !             
  0.3194   0.3194   0.0000  0.0041  !             
  0.3333   0.3333   0.0000  0.0041  !             
  0.3472   0.3472   0.0000  0.0041  !             
  0.3611   0.3611   0.0000  0.0041  !             
  0.3750   0.3750   0.0000  0.0041  !             
  0.3889   0.3889   0.0000  0.0041  !             
  0.4028   0.4028   0.0000  0.0041  !             
  0.4167   0.4167   0.0000  0.0041  !             
  0.4306   0.4306   0.0000  0.0041  !             
  0.4444   0.4444   0.0000  0.0041  !             
  0.4583   0.4583   0.0000  0.0041  !             
  0.4722   0.4722   0.0000  0.0041  !             
  0.4861   0.4861   0.0000  0.0041  !             
  0.5000   0.5000   0.0000  0.0041  ! $V$         