Automatically generated mesh
313
Reciprocal lattice
  0.0000   0.0000   0.0000  0.0032  ! $\Gamma$    
  0.0068   0.0068   0.0000  0.0032  !             
  0.0136   0.0136   0.0000  0.0032  !             
  0.0204   0.0204   0.0000  0.0032  !             
  0.0272   0.0272   0.0000  0.0032  !             
  0.0340   0.0340   0.0000  0.0032  !             
  0.0407   0.0407   0.0000  0.0032  !             
  0.0475   0.0475   0.0000  0.0032  !             
  0.0543   0.0543   0.0000  0.0032  !             
  0.0611   0.0611   0.0000  0.0032  !             
  0.0679   0.0679   0.0000  0.0032  !             
  0.0747   0.0747   0.0000  0.0032  !             
  0.0815   0.0815   0.0000  0.0032  !             
  0.0883   0.0883   0.0000  0.0032  !             
  0.0951   0.0951   0.0000  0.0032  !             
  0.1019   0.1019   0.0000  0.0032  !             
  0.1087   0.1087   0.0000  0.0032  !             
  0.1155   0.1155   0.0000  0.0032  !             
  0.1222   0.1222   0.0000  0.0032  !             
  0.1290   0.1290   0.0000  0.0032  !             
  0.1358   0.1358   0.0000  0.0032  !             
  0.1426   0.1426   0.0000  0.0032  !             
  0.1494   0.1494   0.0000  0.0032  !             
  0.1562   0.1562   0.0000  0.0032  !             
  0.1630   0.1630   0.0000  0.0032  !             
  0.1698   0.1698   0.0000  0.0032  !             
  0.1766   0.1766   0.0000  0.0032  !             
  0.1834   0.1834   0.0000  0.0032  !             
  0.1902   0.1902   0.0000  0.0032  !             
  0.1970   0.1970   0.0000  0.0032  !             
  0.2037   0.2037   0.0000  0.0032  !             
  0.2105   0.2105   0.0000  0.0032  !             
  0.2173   0.2173   0.0000  0.0032  !             
  0.2241   0.2241   0.0000  0.0032  !             
  0.2309   0.2309   0.0000  0.0032  !             
  0.2377   0.2377   0.0000  0.0032  !             
  0.2445   0.2445   0.0000  0.0032  !             
  0.2513   0.2513   0.0000  0.0032  !             
  0.2581   0.2581   0.0000  0.0032  !             
  0.2649   0.2649   0.0000  0.0032  !             
  0.2717   0.2717   0.0000  0.0032  !             
  0.2785   0.2785   0.0000  0.0032  !             
  0.2852   0.2852   0.0000  0.0032  !             
  0.2920   0.2920   0.0000  0.0032  ! $C$         
 -0.2920   0.7080  -0.0000  0.0032  ! $C_2$       
 -0.2987   0.7013  -0.0000  0.0032  !             
 -0.3055   0.6945  -0.0000  0.0032  !             
 -0.3122   0.6878  -0.0000  0.0032  !             
 -0.3189   0.6811  -0.0000  0.0032  !             
 -0.3256   0.6744  -0.0000  0.0032  !             
 -0.3323   0.6677  -0.0000  0.0032  !             
 -0.3390   0.6610  -0.0000  0.0032  !             
 -0.3457   0.6543  -0.0000  0.0032  !             
 -0.3524   0.6476  -0.0000  0.0032  !             
 -0.3591   0.6409  -0.0000  0.0032  !             
 -0.3658   0.6342  -0.0000  0.0032  !             
 -0.3725   0.6275  -0.0000  0.0032  !             
 -0.3792   0.6208  -0.0000  0.0032  !             
 -0.3860   0.6140  -0.0000  0.0032  !             
 -0.3927   0.6073  -0.0000  0.0032  !             
 -0.3994   0.6006  -0.0000  0.0032  !             
 -0.4061   0.5939  -0.0000  0.0032  !             
 -0.4128   0.5872  -0.0000  0.0032  !             
 -0.4195   0.5805  -0.0000  0.0032  !             
 -0.4262   0.5738  -0.0000  0.0032  !             
 -0.4329   0.5671  -0.0000  0.0032  !             
 -0.4396   0.5604  -0.0000  0.0032  !             
 -0.4463   0.5537  -0.0000  0.0032  !             
 -0.4530   0.5470  -0.0000  0.0032  !             
 -0.4597   0.5403  -0.0000  0.0032  !             
 -0.4665   0.5335  -0.0000  0.0032  !             
 -0.4732   0.5268  -0.0000  0.0032  !             
 -0.4799   0.5201  -0.0000  0.0032  !             
 -0.4866   0.5134  -0.0000  0.0032  !             
 -0.4933   0.5067  -0.0000  0.0032  !             
 -0.5000   0.5000  -0.0000  0.0032  ! $Y_2$       
 -0.5000   0.5000  -0.0000  0.0032  ! $Y_2$       
 -0.4839   0.4839  -0.0000  0.0032  !             
 -0.4677   0.4677  -0.0000  0.0032  !             
 -0.4516   0.4516  -0.0000  0.0032  !             
 -0.4355   0.4355  -0.0000  0.0032  !             
 -0.4194   0.4194  -0.0000  0.0032  !             
 -0.4032   0.4032  -0.0000  0.0032  !             
 -0.3871   0.3871  -0.0000  0.0032  !             
 -0.3710   0.3710  -0.0000  0.0032  !             
 -0.3548   0.3548  -0.0000  0.0032  !             
 -0.3387   0.3387   0.0000  0.0032  !             
 -0.3226   0.3226   0.0000  0.0032  !             
 -0.3065   0.3065  -0.0000  0.0032  !             
 -0.2903   0.2903  -0.0000  0.0032  !             
 -0.2742   0.2742  -0.0000  0.0032  !             
 -0.2581   0.2581  -0.0000  0.0032  !             
 -0.2419   0.2419  -0.0000  0.0032  !             
 -0.2258   0.2258   0.0000  0.0032  !             
 -0.2097   0.2097  -0.0000  0.0032  !             
 -0.1935   0.1935  -0.0000  0.0032  !             
 -0.1774   0.1774   0.0000  0.0032  !             
 -0.1613   0.1613   0.0000  0.0032  !             
 -0.1452   0.1452  -0.0000  0.0032  !             
 -0.1290   0.1290  -0.0000  0.0032  !             
 -0.1129   0.1129   0.0000  0.0032  !             
 -0.0968   0.0968   0.0000  0.0032  !             
 -0.0806   0.0806  -0.0000  0.0032  !             
 -0.0645   0.0645   0.0000  0.0032  !             
 -0.0484   0.0484  -0.0000  0.0032  !             
 -0.0323   0.0323   0.0000  0.0032  !             
 -0.0161   0.0161   0.0000  0.0032  !             
  0.0000   0.0000   0.0000  0.0032  ! $\Gamma$    
  0.0000   0.0000   0.0000  0.0032  ! $\Gamma$    
 -0.0217   0.0217   0.0217  0.0032  !             
 -0.0435   0.0435   0.0435  0.0032  !             
 -0.0652   0.0652   0.0652  0.0032  !             
 -0.0870   0.0870   0.0870  0.0032  !             
 -0.1087   0.1087   0.1087  0.0032  !             
 -0.1304   0.1304   0.1304  0.0032  !             
 -0.1522   0.1522   0.1522  0.0032  !             
 -0.1739   0.1739   0.1739  0.0032  !             
 -0.1957   0.1957   0.1957  0.0032  !             
 -0.2174   0.2174   0.2174  0.0032  !             
 -0.2391   0.2391   0.2391  0.0032  !             
 -0.2609   0.2609   0.2609  0.0032  !             
 -0.2826   0.2826   0.2826  0.0032  !             
 -0.3043   0.3043   0.3043  0.0032  !             
 -0.3261   0.3261   0.3261  0.0032  !             
 -0.3478   0.3478   0.3478  0.0032  !             
 -0.3696   0.3696   0.3696  0.0032  !             
 -0.3913   0.3913   0.3913  0.0032  !             
 -0.4130   0.4130   0.4130  0.0032  !             
 -0.4348   0.4348   0.4348  0.0032  !             
 -0.4565   0.4565   0.4565  0.0032  !             
 -0.4783   0.4783   0.4783  0.0032  !             
 -0.5000   0.5000   0.5000  0.0032  ! $M_2$       
 -0.5000   0.5000   0.5000  0.0032  ! $M_2$       
 -0.4933   0.5067   0.5000  0.0032  !             
 -0.4865   0.5135   0.5000  0.0032  !             
 -0.4798   0.5202   0.5000  0.0032  !             
 -0.4730   0.5270   0.5000  0.0032  !             
 -0.4663   0.5337   0.5000  0.0032  !             
 -0.4595   0.5405   0.5000  0.0032  !             
 -0.4528   0.5472   0.5000  0.0032  !             
 -0.4460   0.5540   0.5000  0.0032  !             
 -0.4393   0.5607   0.5000  0.0032  !             
 -0.4325   0.5675   0.5000  0.0032  !             
 -0.4258   0.5742   0.5000  0.0032  !             
 -0.4190   0.5810   0.5000  0.0032  !             
 -0.4123   0.5877   0.5000  0.0032  !             
 -0.4055   0.5945   0.5000  0.0032  !             
 -0.3988   0.6012   0.5000  0.0032  !             
 -0.3920   0.6080   0.5000  0.0032  !             
 -0.3853   0.6147   0.5000  0.0032  !             
 -0.3785   0.6215   0.5000  0.0032  !             
 -0.3718   0.6282   0.5000  0.0032  !             
 -0.3650   0.6350   0.5000  0.0032  !             
 -0.3583   0.6417   0.5000  0.0032  !             
 -0.3515   0.6485   0.5000  0.0032  !             
 -0.3448   0.6552   0.5000  0.0032  !             
 -0.3380   0.6620   0.5000  0.0032  !             
 -0.3313   0.6687   0.5000  0.0032  !             
 -0.3246   0.6754   0.5000  0.0032  !             
 -0.3178   0.6822   0.5000  0.0032  !             
 -0.3111   0.6889   0.5000  0.0032  !             
 -0.3043   0.6957   0.5000  0.0032  !             
 -0.2976   0.7024   0.5000  0.0032  !             
 -0.2908   0.7092   0.5000  0.0032  !             
 -0.2841   0.7159   0.5000  0.0032  !             
 -0.2773   0.7227   0.5000  0.0032  !             
 -0.2706   0.7294   0.5000  0.0032  !             
 -0.2638   0.7362   0.5000  0.0032  !             
 -0.2571   0.7429   0.5000  0.0032  !             
 -0.2503   0.7497   0.5000  0.0032  ! $D$         
  0.2503   0.2503   0.5000  0.0032  ! $D_2$       
  0.2436   0.2436   0.5000  0.0032  !             
  0.2368   0.2368   0.5000  0.0032  !             
  0.2300   0.2300   0.5000  0.0032  !             
  0.2233   0.2233   0.5000  0.0032  !             
  0.2165   0.2165   0.5000  0.0032  !             
  0.2097   0.2097   0.5000  0.0032  !             
  0.2030   0.2030   0.5000  0.0032  !             
  0.1962   0.1962   0.5000  0.0032  !             
  0.1894   0.1894   0.5000  0.0032  !             
  0.1827   0.1827   0.5000  0.0032  !             
  0.1759   0.1759   0.5000  0.0032  !             
  0.1691   0.1691   0.5000  0.0032  !             
  0.1624   0.1624   0.5000  0.0032  !             
  0.1556   0.1556   0.5000  0.0032  !             
  0.1488   0.1488   0.5000  0.0032  !             
  0.1421   0.1421   0.5000  0.0032  !             
  0.1353   0.1353   0.5000  0.0032  !             
  0.1285   0.1285   0.5000  0.0032  !             
  0.1218   0.1218   0.5000  0.0032  !             
  0.1150   0.1150   0.5000  0.0032  !             
  0.1082   0.1082   0.5000  0.0032  !             
  0.1015   0.1015   0.5000  0.0032  !             
  0.0947   0.0947   0.5000  0.0032  !             
  0.0880   0.0880   0.5000  0.0032  !             
  0.0812   0.0812   0.5000  0.0032  !             
  0.0744   0.0744   0.5000  0.0032  !             
  0.0677   0.0677   0.5000  0.0032  !             
  0.0609   0.0609   0.5000  0.0032  !             
  0.0541   0.0541   0.5000  0.0032  !             
  0.0474   0.0474   0.5000  0.0032  !             
  0.0406   0.0406   0.5000  0.0032  !             
  0.0338   0.0338   0.5000  0.0032  !             
  0.0271   0.0271   0.5000  0.0032  !             
  0.0203   0.0203   0.5000  0.0032  !             
  0.0135   0.0135   0.5000  0.0032  !             
  0.0068   0.0068   0.5000  0.0032  !             
  0.0000   0.0000   0.5000  0.0032  ! $A$         
  0.0000   0.0000   0.5000  0.0032  ! $A$         
  0.0000   0.0000   0.4773  0.0032  !             
  0.0000   0.0000   0.4545  0.0032  !             
  0.0000   0.0000   0.4318  0.0032  !             
  0.0000   0.0000   0.4091  0.0032  !             
  0.0000   0.0000   0.3864  0.0032  !             
  0.0000   0.0000   0.3636  0.0032  !             
  0.0000   0.0000   0.3409  0.0032  !             
  0.0000   0.0000   0.3182  0.0032  !             
  0.0000   0.0000   0.2955  0.0032  !             
  0.0000   0.0000   0.2727  0.0032  !             
  0.0000   0.0000   0.2500  0.0032  !             
  0.0000   0.0000   0.2273  0.0032  !             
  0.0000   0.0000   0.2045  0.0032  !             
  0.0000   0.0000   0.1818  0.0032  !             
  0.0000   0.0000   0.1591  0.0032  !             
  0.0000   0.0000   0.1364  0.0032  !             
  0.0000   0.0000   0.1136  0.0032  !             
  0.0000   0.0000   0.0909  0.0032  !             
  0.0000   0.0000   0.0682  0.0032  !             
  0.0000   0.0000   0.0455  0.0032  !             
  0.0000   0.0000   0.0227  0.0032  !             
  0.0000   0.0000   0.0000  0.0032  ! $\Gamma$    
  0.0000   0.5000   0.5000  0.0032  ! $L_2$       
  0.0000   0.4875   0.4875  0.0032  !             
  0.0000   0.4750   0.4750  0.0032  !             
  0.0000   0.4625   0.4625  0.0032  !             
  0.0000   0.4500   0.4500  0.0032  !             
  0.0000   0.4375   0.4375  0.0032  !             
  0.0000   0.4250   0.4250  0.0032  !             
  0.0000   0.4125   0.4125  0.0032  !             
  0.0000   0.4000   0.4000  0.0032  !             
 -0.0000   0.3875   0.3875  0.0032  !             
  0.0000   0.3750   0.3750  0.0032  !             
  0.0000   0.3625   0.3625  0.0032  !             
  0.0000   0.3500   0.3500  0.0032  !             
  0.0000   0.3375   0.3375  0.0032  !             
  0.0000   0.3250   0.3250  0.0032  !             
  0.0000   0.3125   0.3125  0.0032  !             
  0.0000   0.3000   0.3000  0.0032  !             
  0.0000   0.2875   0.2875  0.0032  !             
  0.0000   0.2750   0.2750  0.0032  !             
  0.0000   0.2625   0.2625  0.0032  !             
  0.0000   0.2500   0.2500  0.0032  !             
  0.0000   0.2375   0.2375  0.0032  !             
  0.0000   0.2250   0.2250  0.0032  !             
  0.0000   0.2125   0.2125  0.0032  !             
  0.0000   0.2000   0.2000  0.0032  !             
  0.0000   0.1875   0.1875  0.0032  !             
  0.0000   0.1750   0.1750  0.0032  !             
  0.0000   0.1625   0.1625  0.0032  !             
  0.0000   0.1500   0.1500  0.0032  !             
  0.0000   0.1375   0.1375  0.0032  !             
  0.0000   0.1250   0.1250  0.0032  !             
  0.0000   0.1125   0.1125  0.0032  !             
  0.0000   0.1000   0.1000  0.0032  !             
  0.0000   0.0875   0.0875  0.0032  !             
  0.0000   0.0750   0.0750  0.0032  !             
  0.0000   0.0625   0.0625  0.0032  !             
  0.0000   0.0500   0.0500  0.0032  !             
  0.0000   0.0375   0.0375  0.0032  !             
  0.0000   0.0250   0.0250  0.0032  !             
 -0.0000   0.0125   0.0125  0.0032  !             
  0.0000   0.0000   0.0000  0.0032  ! $\Gamma$    
  0.0000   0.0000   0.0000  0.0032  ! $\Gamma$    
  0.0000   0.0125  -0.0000  0.0032  !             
  0.0000   0.0250  -0.0000  0.0032  !             
  0.0000   0.0375  -0.0000  0.0032  !             
  0.0000   0.0500  -0.0000  0.0032  !             
  0.0000   0.0625  -0.0000  0.0032  !             
  0.0000   0.0750  -0.0000  0.0032  !             
  0.0000   0.0875  -0.0000  0.0032  !             
  0.0000   0.1000  -0.0000  0.0032  !             
  0.0000   0.1125  -0.0000  0.0032  !             
  0.0000   0.1250  -0.0000  0.0032  !             
  0.0000   0.1375  -0.0000  0.0032  !             
  0.0000   0.1500  -0.0000  0.0032  !             
  0.0000   0.1625   0.0000  0.0032  !             
  0.0000   0.1750  -0.0000  0.0032  !             
  0.0000   0.1875  -0.0000  0.0032  !             
  0.0000   0.2000  -0.0000  0.0032  !             
  0.0000   0.2125  -0.0000  0.0032  !             
  0.0000   0.2250  -0.0000  0.0032  !             
  0.0000   0.2375  -0.0000  0.0032  !             
  0.0000   0.2500  -0.0000  0.0032  !             
  0.0000   0.2625  -0.0000  0.0032  !             
  0.0000   0.2750  -0.0000  0.0032  !             
  0.0000   0.2875  -0.0000  0.0032  !             
  0.0000   0.3000  -0.0000  0.0032  !             
  0.0000   0.3125   0.0000  0.0032  !             
  0.0000   0.3250   0.0000  0.0032  !             
  0.0000   0.3375  -0.0000  0.0032  !             
  0.0000   0.3500  -0.0000  0.0032  !             
  0.0000   0.3625   0.0000  0.0032  !             
  0.0000   0.3750  -0.0000  0.0032  !             
  0.0000   0.3875  -0.0000  0.0032  !             
  0.0000   0.4000  -0.0000  0.0032  !             
  0.0000   0.4125  -0.0000  0.0032  !             
  0.0000   0.4250  -0.0000  0.0032  !             
  0.0000   0.4375  -0.0000  0.0032  !             
  0.0000   0.4500  -0.0000  0.0032  !             
  0.0000   0.4625  -0.0000  0.0032  !             
  0.0000   0.4750  -0.0000  0.0032  !             
  0.0000   0.4875  -0.0000  0.0032  !             
  0.0000   0.5000  -0.0000  0.0032  ! $V_2$       