Automatically generated mesh
326
Reciprocal lattice
  0.0000   0.0000   0.0000  0.0031  ! $\Gamma$    
  0.0000   0.0128   0.0000  0.0031  !             
  0.0000   0.0256   0.0000  0.0031  !             
  0.0000   0.0385   0.0000  0.0031  !             
  0.0000   0.0513   0.0000  0.0031  !             
  0.0000   0.0641   0.0000  0.0031  !             
  0.0000   0.0769   0.0000  0.0031  !             
  0.0000   0.0897   0.0000  0.0031  !             
  0.0000   0.1026   0.0000  0.0031  !             
  0.0000   0.1154   0.0000  0.0031  !             
  0.0000   0.1282   0.0000  0.0031  !             
  0.0000   0.1410   0.0000  0.0031  !             
  0.0000   0.1538   0.0000  0.0031  !             
  0.0000   0.1667   0.0000  0.0031  !             
  0.0000   0.1795   0.0000  0.0031  !             
  0.0000   0.1923   0.0000  0.0031  !             
  0.0000   0.2051   0.0000  0.0031  !             
  0.0000   0.2179   0.0000  0.0031  !             
  0.0000   0.2308   0.0000  0.0031  !             
  0.0000   0.2436   0.0000  0.0031  !             
  0.0000   0.2564   0.0000  0.0031  !             
  0.0000   0.2692   0.0000  0.0031  !             
  0.0000   0.2821   0.0000  0.0031  !             
  0.0000   0.2949   0.0000  0.0031  !             
  0.0000   0.3077   0.0000  0.0031  !             
  0.0000   0.3205   0.0000  0.0031  !             
  0.0000   0.3333   0.0000  0.0031  !             
  0.0000   0.3462   0.0000  0.0031  !             
  0.0000   0.3590   0.0000  0.0031  !             
  0.0000   0.3718   0.0000  0.0031  !             
  0.0000   0.3846   0.0000  0.0031  !             
  0.0000   0.3974   0.0000  0.0031  !             
  0.0000   0.4103   0.0000  0.0031  !             
  0.0000   0.4231   0.0000  0.0031  !             
  0.0000   0.4359   0.0000  0.0031  !             
  0.0000   0.4487   0.0000  0.0031  !             
  0.0000   0.4615   0.0000  0.0031  !             
  0.0000   0.4744   0.0000  0.0031  !             
  0.0000   0.4872   0.0000  0.0031  !             
  0.0000   0.5000   0.0000  0.0031  ! $Z$         
  0.0000   0.5000   0.0000  0.0031  ! $Z$         
  0.0000   0.5000   0.0217  0.0031  !             
  0.0000   0.5000   0.0435  0.0031  !             
  0.0000   0.5000   0.0652  0.0031  !             
  0.0000   0.5000   0.0870  0.0031  !             
  0.0000   0.5000   0.1087  0.0031  !             
  0.0000   0.5000   0.1304  0.0031  !             
  0.0000   0.5000   0.1522  0.0031  !             
  0.0000   0.5000   0.1739  0.0031  !             
  0.0000   0.5000   0.1957  0.0031  !             
  0.0000   0.5000   0.2174  0.0031  !             
  0.0000   0.5000   0.2391  0.0031  !             
  0.0000   0.5000   0.2609  0.0031  !             
  0.0000   0.5000   0.2826  0.0031  !             
  0.0000   0.5000   0.3043  0.0031  !             
  0.0000   0.5000   0.3261  0.0031  !             
  0.0000   0.5000   0.3478  0.0031  !             
  0.0000   0.5000   0.3696  0.0031  !             
  0.0000   0.5000   0.3913  0.0031  !             
  0.0000   0.5000   0.4130  0.0031  !             
  0.0000   0.5000   0.4348  0.0031  !             
  0.0000   0.5000   0.4565  0.0031  !             
  0.0000   0.5000   0.4783  0.0031  !             
  0.0000   0.5000   0.5000  0.0031  ! $D$         
  0.0000   0.5000   0.5000  0.0031  ! $D$         
  0.0000   0.4872   0.5000  0.0031  !             
  0.0000   0.4744   0.5000  0.0031  !             
  0.0000   0.4615   0.5000  0.0031  !             
  0.0000   0.4487   0.5000  0.0031  !             
  0.0000   0.4359   0.5000  0.0031  !             
  0.0000   0.4231   0.5000  0.0031  !             
  0.0000   0.4103   0.5000  0.0031  !             
  0.0000   0.3974   0.5000  0.0031  !             
  0.0000   0.3846   0.5000  0.0031  !             
  0.0000   0.3718   0.5000  0.0031  !             
  0.0000   0.3590   0.5000  0.0031  !             
  0.0000   0.3462   0.5000  0.0031  !             
  0.0000   0.3333   0.5000  0.0031  !             
  0.0000   0.3205   0.5000  0.0031  !             
  0.0000   0.3077   0.5000  0.0031  !             
  0.0000   0.2949   0.5000  0.0031  !             
  0.0000   0.2821   0.5000  0.0031  !             
  0.0000   0.2692   0.5000  0.0031  !             
  0.0000   0.2564   0.5000  0.0031  !             
  0.0000   0.2436   0.5000  0.0031  !             
  0.0000   0.2308   0.5000  0.0031  !             
  0.0000   0.2179   0.5000  0.0031  !             
  0.0000   0.2051   0.5000  0.0031  !             
  0.0000   0.1923   0.5000  0.0031  !             
  0.0000   0.1795   0.5000  0.0031  !             
  0.0000   0.1667   0.5000  0.0031  !             
  0.0000   0.1538   0.5000  0.0031  !             
  0.0000   0.1410   0.5000  0.0031  !             
  0.0000   0.1282   0.5000  0.0031  !             
  0.0000   0.1154   0.5000  0.0031  !             
  0.0000   0.1026   0.5000  0.0031  !             
  0.0000   0.0897   0.5000  0.0031  !             
  0.0000   0.0769   0.5000  0.0031  !             
  0.0000   0.0641   0.5000  0.0031  !             
  0.0000   0.0513   0.5000  0.0031  !             
  0.0000   0.0385   0.5000  0.0031  !             
  0.0000   0.0256   0.5000  0.0031  !             
  0.0000   0.0128   0.5000  0.0031  !             
  0.0000   0.0000   0.5000  0.0031  ! $B$         
  0.0000   0.0000   0.5000  0.0031  ! $B$         
  0.0000   0.0000   0.4783  0.0031  !             
  0.0000   0.0000   0.4565  0.0031  !             
  0.0000   0.0000   0.4348  0.0031  !             
  0.0000   0.0000   0.4130  0.0031  !             
  0.0000   0.0000   0.3913  0.0031  !             
  0.0000   0.0000   0.3696  0.0031  !             
  0.0000   0.0000   0.3478  0.0031  !             
  0.0000   0.0000   0.3261  0.0031  !             
  0.0000   0.0000   0.3043  0.0031  !             
  0.0000   0.0000   0.2826  0.0031  !             
  0.0000   0.0000   0.2609  0.0031  !             
  0.0000   0.0000   0.2391  0.0031  !             
  0.0000   0.0000   0.2174  0.0031  !             
  0.0000   0.0000   0.1957  0.0031  !             
  0.0000   0.0000   0.1739  0.0031  !             
  0.0000   0.0000   0.1522  0.0031  !             
  0.0000   0.0000   0.1304  0.0031  !             
  0.0000   0.0000   0.1087  0.0031  !             
  0.0000   0.0000   0.0870  0.0031  !             
  0.0000   0.0000   0.0652  0.0031  !             
  0.0000   0.0000   0.0435  0.0031  !             
  0.0000   0.0000   0.0217  0.0031  !             
  0.0000   0.0000   0.0000  0.0031  ! $\Gamma$    
  0.0000   0.0000   0.0000  0.0031  ! $\Gamma$    
 -0.0152   0.0000   0.0152  0.0031  !             
 -0.0303   0.0000   0.0303  0.0031  !             
 -0.0455   0.0000   0.0455  0.0031  !             
 -0.0606   0.0000   0.0606  0.0031  !             
 -0.0758   0.0000   0.0758  0.0031  !             
 -0.0909   0.0000   0.0909  0.0031  !             
 -0.1061   0.0000   0.1061  0.0031  !             
 -0.1212   0.0000   0.1212  0.0031  !             
 -0.1364   0.0000   0.1364  0.0031  !             
 -0.1515   0.0000   0.1515  0.0031  !             
 -0.1667   0.0000   0.1667  0.0031  !             
 -0.1818   0.0000   0.1818  0.0031  !             
 -0.1970   0.0000   0.1970  0.0031  !             
 -0.2121   0.0000   0.2121  0.0031  !             
 -0.2273   0.0000   0.2273  0.0031  !             
 -0.2424   0.0000   0.2424  0.0031  !             
 -0.2576   0.0000   0.2576  0.0031  !             
 -0.2727   0.0000   0.2727  0.0031  !             
 -0.2879   0.0000   0.2879  0.0031  !             
 -0.3030   0.0000   0.3030  0.0031  !             
 -0.3182   0.0000   0.3182  0.0031  !             
 -0.3333   0.0000   0.3333  0.0031  !             
 -0.3485   0.0000   0.3485  0.0031  !             
 -0.3636   0.0000   0.3636  0.0031  !             
 -0.3788   0.0000   0.3788  0.0031  !             
 -0.3939   0.0000   0.3939  0.0031  !             
 -0.4091   0.0000   0.4091  0.0031  !             
 -0.4242   0.0000   0.4242  0.0031  !             
 -0.4394   0.0000   0.4394  0.0031  !             
 -0.4545   0.0000   0.4545  0.0031  !             
 -0.4697   0.0000   0.4697  0.0031  !             
 -0.4848   0.0000   0.4848  0.0031  !             
 -0.5000   0.0000   0.5000  0.0031  ! $A$         
 -0.5000   0.0000   0.5000  0.0031  ! $A$         
 -0.5000   0.0128   0.5000  0.0031  !             
 -0.5000   0.0256   0.5000  0.0031  !             
 -0.5000   0.0385   0.5000  0.0031  !             
 -0.5000   0.0513   0.5000  0.0031  !             
 -0.5000   0.0641   0.5000  0.0031  !             
 -0.5000   0.0769   0.5000  0.0031  !             
 -0.5000   0.0897   0.5000  0.0031  !             
 -0.5000   0.1026   0.5000  0.0031  !             
 -0.5000   0.1154   0.5000  0.0031  !             
 -0.5000   0.1282   0.5000  0.0031  !             
 -0.5000   0.1410   0.5000  0.0031  !             
 -0.5000   0.1538   0.5000  0.0031  !             
 -0.5000   0.1667   0.5000  0.0031  !             
 -0.5000   0.1795   0.5000  0.0031  !             
 -0.5000   0.1923   0.5000  0.0031  !             
 -0.5000   0.2051   0.5000  0.0031  !             
 -0.5000   0.2179   0.5000  0.0031  !             
 -0.5000   0.2308   0.5000  0.0031  !             
 -0.5000   0.2436   0.5000  0.0031  !             
 -0.5000   0.2564   0.5000  0.0031  !             
 -0.5000   0.2692   0.5000  0.0031  !             
 -0.5000   0.2821   0.5000  0.0031  !             
 -0.5000   0.2949   0.5000  0.0031  !             
 -0.5000   0.3077   0.5000  0.0031  !             
 -0.5000   0.3205   0.5000  0.0031  !             
 -0.5000   0.3333   0.5000  0.0031  !             
 -0.5000   0.3462   0.5000  0.0031  !             
 -0.5000   0.3590   0.5000  0.0031  !             
 -0.5000   0.3718   0.5000  0.0031  !             
 -0.5000   0.3846   0.5000  0.0031  !             
 -0.5000   0.3974   0.5000  0.0031  !             
 -0.5000   0.4103   0.5000  0.0031  !             
 -0.5000   0.4231   0.5000  0.0031  !             
 -0.5000   0.4359   0.5000  0.0031  !             
 -0.5000   0.4487   0.5000  0.0031  !             
 -0.5000   0.4615   0.5000  0.0031  !             
 -0.5000   0.4744   0.5000  0.0031  !             
 -0.5000   0.4872   0.5000  0.0031  !             
 -0.5000   0.5000   0.5000  0.0031  ! $E$         
 -0.5000   0.5000   0.5000  0.0031  ! $E$         
 -0.4848   0.5000   0.4848  0.0031  !             
 -0.4697   0.5000   0.4697  0.0031  !             
 -0.4545   0.5000   0.4545  0.0031  !             
 -0.4394   0.5000   0.4394  0.0031  !             
 -0.4242   0.5000   0.4242  0.0031  !             
 -0.4091   0.5000   0.4091  0.0031  !             
 -0.3939   0.5000   0.3939  0.0031  !             
 -0.3788   0.5000   0.3788  0.0031  !             
 -0.3636   0.5000   0.3636  0.0031  !             
 -0.3485   0.5000   0.3485  0.0031  !             
 -0.3333   0.5000   0.3333  0.0031  !             
 -0.3182   0.5000   0.3182  0.0031  !             
 -0.3030   0.5000   0.3030  0.0031  !             
 -0.2879   0.5000   0.2879  0.0031  !             
 -0.2727   0.5000   0.2727  0.0031  !             
 -0.2576   0.5000   0.2576  0.0031  !             
 -0.2424   0.5000   0.2424  0.0031  !             
 -0.2273   0.5000   0.2273  0.0031  !             
 -0.2121   0.5000   0.2121  0.0031  !             
 -0.1970   0.5000   0.1970  0.0031  !             
 -0.1818   0.5000   0.1818  0.0031  !             
 -0.1667   0.5000   0.1667  0.0031  !             
 -0.1515   0.5000   0.1515  0.0031  !             
 -0.1364   0.5000   0.1364  0.0031  !             
 -0.1212   0.5000   0.1212  0.0031  !             
 -0.1061   0.5000   0.1061  0.0031  !             
 -0.0909   0.5000   0.0909  0.0031  !             
 -0.0758   0.5000   0.0758  0.0031  !             
 -0.0606   0.5000   0.0606  0.0031  !             
 -0.0455   0.5000   0.0455  0.0031  !             
 -0.0303   0.5000   0.0303  0.0031  !             
 -0.0152   0.5000   0.0152  0.0031  !             
  0.0000   0.5000   0.0000  0.0031  ! $Z$         
  0.0000   0.5000   0.0000  0.0031  ! $Z$         
 -0.0208   0.5000  -0.0000  0.0031  !             
 -0.0417   0.5000  -0.0000  0.0031  !             
 -0.0625   0.5000  -0.0000  0.0031  !             
 -0.0833   0.5000  -0.0000  0.0031  !             
 -0.1042   0.5000  -0.0000  0.0031  !             
 -0.1250   0.5000  -0.0000  0.0031  !             
 -0.1458   0.5000  -0.0000  0.0031  !             
 -0.1667   0.5000  -0.0000  0.0031  !             
 -0.1875   0.5000  -0.0000  0.0031  !             
 -0.2083   0.5000  -0.0000  0.0031  !             
 -0.2292   0.5000  -0.0000  0.0031  !             
 -0.2500   0.5000  -0.0000  0.0031  !             
 -0.2708   0.5000  -0.0000  0.0031  !             
 -0.2917   0.5000  -0.0000  0.0031  !             
 -0.3125   0.5000  -0.0000  0.0031  !             
 -0.3333   0.5000  -0.0000  0.0031  !             
 -0.3542   0.5000  -0.0000  0.0031  !             
 -0.3750   0.5000  -0.0000  0.0031  !             
 -0.3958   0.5000  -0.0000  0.0031  !             
 -0.4167   0.5000  -0.0000  0.0031  !             
 -0.4375   0.5000  -0.0000  0.0031  !             
 -0.4583   0.5000  -0.0000  0.0031  !             
 -0.4792   0.5000  -0.0000  0.0031  !             
 -0.5000   0.5000  -0.0000  0.0031  ! $C_2$       
 -0.5000   0.5000  -0.0000  0.0031  ! $C_2$       
 -0.5000   0.4872  -0.0000  0.0031  !             
 -0.5000   0.4744  -0.0000  0.0031  !             
 -0.5000   0.4615  -0.0000  0.0031  !             
 -0.5000   0.4487  -0.0000  0.0031  !             
 -0.5000   0.4359  -0.0000  0.0031  !             
 -0.5000   0.4231  -0.0000  0.0031  !             
 -0.5000   0.4103  -0.0000  0.0031  !             
 -0.5000   0.3974  -0.0000  0.0031  !             
 -0.5000   0.3846  -0.0000  0.0031  !             
 -0.5000   0.3718  -0.0000  0.0031  !             
 -0.5000   0.3590  -0.0000  0.0031  !             
 -0.5000   0.3462  -0.0000  0.0031  !             
 -0.5000   0.3333  -0.0000  0.0031  !             
 -0.5000   0.3205  -0.0000  0.0031  !             
 -0.5000   0.3077  -0.0000  0.0031  !             
 -0.5000   0.2949  -0.0000  0.0031  !             
 -0.5000   0.2821  -0.0000  0.0031  !             
 -0.5000   0.2692  -0.0000  0.0031  !             
 -0.5000   0.2564  -0.0000  0.0031  !             
 -0.5000   0.2436  -0.0000  0.0031  !             
 -0.5000   0.2308  -0.0000  0.0031  !             
 -0.5000   0.2179  -0.0000  0.0031  !             
 -0.5000   0.2051  -0.0000  0.0031  !             
 -0.5000   0.1923  -0.0000  0.0031  !             
 -0.5000   0.1795  -0.0000  0.0031  !             
 -0.5000   0.1667  -0.0000  0.0031  !             
 -0.5000   0.1538  -0.0000  0.0031  !             
 -0.5000   0.1410  -0.0000  0.0031  !             
 -0.5000   0.1282  -0.0000  0.0031  !             
 -0.5000   0.1154  -0.0000  0.0031  !             
 -0.5000   0.1026  -0.0000  0.0031  !             
 -0.5000   0.0897  -0.0000  0.0031  !             
 -0.5000   0.0769  -0.0000  0.0031  !             
 -0.5000   0.0641  -0.0000  0.0031  !             
 -0.5000   0.0513  -0.0000  0.0031  !             
 -0.5000   0.0385  -0.0000  0.0031  !             
 -0.5000   0.0256  -0.0000  0.0031  !             
 -0.5000   0.0128  -0.0000  0.0031  !             
 -0.5000   0.0000  -0.0000  0.0031  ! $Y_2$       
 -0.5000   0.0000  -0.0000  0.0031  ! $Y_2$       
 -0.4792   0.0000  -0.0000  0.0031  !             
 -0.4583   0.0000  -0.0000  0.0031  !             
 -0.4375   0.0000  -0.0000  0.0031  !             
 -0.4167   0.0000  -0.0000  0.0031  !             
 -0.3958   0.0000  -0.0000  0.0031  !             
 -0.3750   0.0000  -0.0000  0.0031  !             
 -0.3542   0.0000  -0.0000  0.0031  !             
 -0.3333   0.0000  -0.0000  0.0031  !             
 -0.3125   0.0000  -0.0000  0.0031  !             
 -0.2917   0.0000  -0.0000  0.0031  !             
 -0.2708   0.0000   0.0000  0.0031  !             
 -0.2500   0.0000  -0.0000  0.0031  !             
 -0.2292   0.0000  -0.0000  0.0031  !             
 -0.2083   0.0000  -0.0000  0.0031  !             
 -0.1875   0.0000  -0.0000  0.0031  !             
 -0.1667   0.0000  -0.0000  0.0031  !             
 -0.1458   0.0000   0.0000  0.0031  !             
 -0.1250   0.0000  -0.0000  0.0031  !             
 -0.1042   0.0000  -0.0000  0.0031  !             
 -0.0833   0.0000  -0.0000  0.0031  !             
 -0.0625   0.0000   0.0000  0.0031  !             
 -0.0417   0.0000   0.0000  0.0031  !             
 -0.0208   0.0000  -0.0000  0.0031  !             
  0.0000   0.0000   0.0000  0.0031  ! $\Gamma$    