Automatically generated mesh
239
Reciprocal lattice
  0.0000   0.0000   0.0000  0.0042  ! $\Gamma$    
  0.0172   0.0000  -0.0000  0.0042  !             
  0.0345   0.0000  -0.0000  0.0042  !             
  0.0517   0.0000  -0.0000  0.0042  !             
  0.0690   0.0000  -0.0000  0.0042  !             
  0.0862  -0.0000  -0.0000  0.0042  !             
  0.1034   0.0000  -0.0000  0.0042  !             
  0.1207   0.0000   0.0000  0.0042  !             
  0.1379   0.0000  -0.0000  0.0042  !             
  0.1552   0.0000   0.0000  0.0042  !             
  0.1724  -0.0000  -0.0000  0.0042  !             
  0.1897  -0.0000  -0.0000  0.0042  !             
  0.2069   0.0000  -0.0000  0.0042  !             
  0.2241   0.0000  -0.0000  0.0042  !             
  0.2414   0.0000   0.0000  0.0042  !             
  0.2586   0.0000  -0.0000  0.0042  !             
  0.2759   0.0000  -0.0000  0.0042  !             
  0.2931  -0.0000  -0.0000  0.0042  !             
  0.3103   0.0000   0.0000  0.0042  !             
  0.3276  -0.0000   0.0000  0.0042  !             
  0.3448  -0.0000  -0.0000  0.0042  !             
  0.3621   0.0000  -0.0000  0.0042  !             
  0.3793  -0.0000  -0.0000  0.0042  !             
  0.3966  -0.0000  -0.0000  0.0042  !             
  0.4138   0.0000  -0.0000  0.0042  !             
  0.4310  -0.0000  -0.0000  0.0042  !             
  0.4483   0.0000  -0.0000  0.0042  !             
  0.4655   0.0000   0.0000  0.0042  !             
  0.4828   0.0000   0.0000  0.0042  !             
  0.5000  -0.0000  -0.0000  0.0042  ! $X$         
  0.0000   0.5000   0.0000  0.0042  ! $Y$         
  0.0000   0.4808   0.0000  0.0042  !             
  0.0000   0.4615   0.0000  0.0042  !             
  0.0000   0.4423   0.0000  0.0042  !             
  0.0000   0.4231   0.0000  0.0042  !             
  0.0000   0.4038   0.0000  0.0042  !             
  0.0000   0.3846   0.0000  0.0042  !             
  0.0000   0.3654   0.0000  0.0042  !             
  0.0000   0.3462   0.0000  0.0042  !             
  0.0000   0.3269   0.0000  0.0042  !             
  0.0000   0.3077   0.0000  0.0042  !             
  0.0000   0.2885   0.0000  0.0042  !             
  0.0000   0.2692   0.0000  0.0042  !             
  0.0000   0.2500   0.0000  0.0042  !             
  0.0000   0.2308   0.0000  0.0042  !             
  0.0000   0.2115   0.0000  0.0042  !             
  0.0000   0.1923   0.0000  0.0042  !             
  0.0000   0.1731   0.0000  0.0042  !             
  0.0000   0.1538   0.0000  0.0042  !             
  0.0000   0.1346   0.0000  0.0042  !             
  0.0000   0.1154   0.0000  0.0042  !             
  0.0000   0.0962   0.0000  0.0042  !             
  0.0000   0.0769   0.0000  0.0042  !             
  0.0000   0.0577   0.0000  0.0042  !             
  0.0000   0.0385   0.0000  0.0042  !             
  0.0000   0.0192   0.0000  0.0042  !             
  0.0000   0.0000   0.0000  0.0042  ! $\Gamma$    
  0.0000   0.0000   0.0000  0.0042  ! $\Gamma$    
  0.0000   0.0000   0.0185  0.0042  !             
  0.0000   0.0000   0.0370  0.0042  !             
  0.0000   0.0000   0.0556  0.0042  !             
  0.0000   0.0000   0.0741  0.0042  !             
  0.0000  -0.0000   0.0926  0.0042  !             
  0.0000   0.0000   0.1111  0.0042  !             
  0.0000  -0.0000   0.1296  0.0042  !             
  0.0000   0.0000   0.1481  0.0042  !             
  0.0000  -0.0000   0.1667  0.0042  !             
  0.0000  -0.0000   0.1852  0.0042  !             
  0.0000  -0.0000   0.2037  0.0042  !             
  0.0000   0.0000   0.2222  0.0042  !             
  0.0000   0.0000   0.2407  0.0042  !             
  0.0000  -0.0000   0.2593  0.0042  !             
  0.0000  -0.0000   0.2778  0.0042  !             
  0.0000   0.0000   0.2963  0.0042  !             
  0.0000  -0.0000   0.3148  0.0042  !             
  0.0000  -0.0000   0.3333  0.0042  !             
  0.0000  -0.0000   0.3519  0.0042  !             
  0.0000  -0.0000   0.3704  0.0042  !             
  0.0000  -0.0000   0.3889  0.0042  !             
  0.0000  -0.0000   0.4074  0.0042  !             
  0.0000  -0.0000   0.4259  0.0042  !             
  0.0000   0.0000   0.4444  0.0042  !             
  0.0000  -0.0000   0.4630  0.0042  !             
  0.0000   0.0000   0.4815  0.0042  !             
  0.0000  -0.0000   0.5000  0.0042  ! $Z$         
  0.5000   0.5000   0.5000  0.0042  ! $R$         
  0.4878   0.4878   0.4878  0.0042  !             
  0.4756   0.4756   0.4756  0.0042  !             
  0.4634   0.4634   0.4634  0.0042  !             
  0.4512   0.4512   0.4512  0.0042  !             
  0.4390   0.4390   0.4390  0.0042  !             
  0.4268   0.4268   0.4268  0.0042  !             
  0.4146   0.4146   0.4146  0.0042  !             
  0.4024   0.4024   0.4024  0.0042  !             
  0.3902   0.3902   0.3902  0.0042  !             
  0.3780   0.3780   0.3780  0.0042  !             
  0.3659   0.3659   0.3659  0.0042  !             
  0.3537   0.3537   0.3537  0.0042  !             
  0.3415   0.3415   0.3415  0.0042  !             
  0.3293   0.3293   0.3293  0.0042  !             
  0.3171   0.3171   0.3171  0.0042  !             
  0.3049   0.3049   0.3049  0.0042  !             
  0.2927   0.2927   0.2927  0.0042  !             
  0.2805   0.2805   0.2805  0.0042  !             
  0.2683   0.2683   0.2683  0.0042  !             
  0.2561   0.2561   0.2561  0.0042  !             
  0.2439   0.2439   0.2439  0.0042  !             
  0.2317   0.2317   0.2317  0.0042  !             
  0.2195   0.2195   0.2195  0.0042  !             
  0.2073   0.2073   0.2073  0.0042  !             
  0.1951   0.1951   0.1951  0.0042  !             
  0.1829   0.1829   0.1829  0.0042  !             
  0.1707   0.1707   0.1707  0.0042  !             
  0.1585   0.1585   0.1585  0.0042  !             
  0.1463   0.1463   0.1463  0.0042  !             
  0.1341   0.1341   0.1341  0.0042  !             
  0.1220   0.1220   0.1220  0.0042  !             
  0.1098   0.1098   0.1098  0.0042  !             
  0.0976   0.0976   0.0976  0.0042  !             
  0.0854   0.0854   0.0854  0.0042  !             
  0.0732   0.0732   0.0732  0.0042  !             
  0.0610   0.0610   0.0610  0.0042  !             
  0.0488   0.0488   0.0488  0.0042  !             
  0.0366   0.0366   0.0366  0.0042  !             
  0.0244   0.0244   0.0244  0.0042  !             
  0.0122   0.0122   0.0122  0.0042  !             
  0.0000   0.0000   0.0000  0.0042  ! $\Gamma$    
  0.0000   0.0000   0.0000  0.0042  ! $\Gamma$    
  0.0000   0.0143   0.0143  0.0042  !             
  0.0000   0.0286   0.0286  0.0042  !             
  0.0000   0.0429   0.0429  0.0042  !             
  0.0000   0.0571   0.0571  0.0042  !             
  0.0000   0.0714   0.0714  0.0042  !             
  0.0000   0.0857   0.0857  0.0042  !             
  0.0000   0.1000   0.1000  0.0042  !             
  0.0000   0.1143   0.1143  0.0042  !             
  0.0000   0.1286   0.1286  0.0042  !             
  0.0000   0.1429   0.1429  0.0042  !             
  0.0000   0.1571   0.1571  0.0042  !             
  0.0000   0.1714   0.1714  0.0042  !             
  0.0000   0.1857   0.1857  0.0042  !             
  0.0000   0.2000   0.2000  0.0042  !             
  0.0000   0.2143   0.2143  0.0042  !             
  0.0000   0.2286   0.2286  0.0042  !             
  0.0000   0.2429   0.2429  0.0042  !             
  0.0000   0.2571   0.2571  0.0042  !             
  0.0000   0.2714   0.2714  0.0042  !             
  0.0000   0.2857   0.2857  0.0042  !             
  0.0000   0.3000   0.3000  0.0042  !             
  0.0000   0.3143   0.3143  0.0042  !             
  0.0000   0.3286   0.3286  0.0042  !             
  0.0000   0.3429   0.3429  0.0042  !             
  0.0000   0.3571   0.3571  0.0042  !             
  0.0000   0.3714   0.3714  0.0042  !             
  0.0000   0.3857   0.3857  0.0042  !             
  0.0000   0.4000   0.4000  0.0042  !             
  0.0000   0.4143   0.4143  0.0042  !             
  0.0000   0.4286   0.4286  0.0042  !             
  0.0000   0.4429   0.4429  0.0042  !             
  0.0000   0.4571   0.4571  0.0042  !             
  0.0000   0.4714   0.4714  0.0042  !             
  0.0000   0.4857   0.4857  0.0042  !             
  0.0000   0.5000   0.5000  0.0042  ! $T$         
  0.5000   0.0000   0.5000  0.0042  ! $U$         
  0.4865   0.0000   0.4865  0.0042  !             
  0.4730   0.0000   0.4730  0.0042  !             
  0.4595   0.0000   0.4595  0.0042  !             
  0.4459   0.0000   0.4459  0.0042  !             
  0.4324   0.0000   0.4324  0.0042  !             
  0.4189   0.0000   0.4189  0.0042  !             
  0.4054   0.0000   0.4054  0.0042  !             
  0.3919   0.0000   0.3919  0.0042  !             
  0.3784   0.0000   0.3784  0.0042  !             
  0.3649   0.0000   0.3649  0.0042  !             
  0.3514   0.0000   0.3514  0.0042  !             
  0.3378   0.0000   0.3378  0.0042  !             
  0.3243   0.0000   0.3243  0.0042  !             
  0.3108   0.0000   0.3108  0.0042  !             
  0.2973   0.0000   0.2973  0.0042  !             
  0.2838  -0.0000   0.2838  0.0042  !             
  0.2703  -0.0000   0.2703  0.0042  !             
  0.2568  -0.0000   0.2568  0.0042  !             
  0.2432   0.0000   0.2432  0.0042  !             
  0.2297   0.0000   0.2297  0.0042  !             
  0.2162   0.0000   0.2162  0.0042  !             
  0.2027  -0.0000   0.2027  0.0042  !             
  0.1892   0.0000   0.1892  0.0042  !             
  0.1757   0.0000   0.1757  0.0042  !             
  0.1622   0.0000   0.1622  0.0042  !             
  0.1486   0.0000   0.1486  0.0042  !             
  0.1351   0.0000   0.1351  0.0042  !             
  0.1216  -0.0000   0.1216  0.0042  !             
  0.1081  -0.0000   0.1081  0.0042  !             
  0.0946  -0.0000   0.0946  0.0042  !             
  0.0811   0.0000   0.0811  0.0042  !             
  0.0676   0.0000   0.0676  0.0042  !             
  0.0541  -0.0000   0.0541  0.0042  !             
  0.0405  -0.0000   0.0405  0.0042  !             
  0.0270   0.0000   0.0270  0.0042  !             
  0.0135  -0.0000   0.0135  0.0042  !             
  0.0000   0.0000   0.0000  0.0042  ! $\Gamma$    
  0.0000   0.0000   0.0000  0.0042  ! $\Gamma$    
  0.0135   0.0135  -0.0000  0.0042  !             
  0.0270   0.0270  -0.0000  0.0042  !             
  0.0405   0.0405  -0.0000  0.0042  !             
  0.0541   0.0541  -0.0000  0.0042  !             
  0.0676   0.0676   0.0000  0.0042  !             
  0.0811   0.0811  -0.0000  0.0042  !             
  0.0946   0.0946   0.0000  0.0042  !             
  0.1081   0.1081  -0.0000  0.0042  !             
  0.1216   0.1216  -0.0000  0.0042  !             
  0.1351   0.1351   0.0000  0.0042  !             
  0.1486   0.1486   0.0000  0.0042  !             
  0.1622   0.1622  -0.0000  0.0042  !             
  0.1757   0.1757  -0.0000  0.0042  !             
  0.1892   0.1892   0.0000  0.0042  !             
  0.2027   0.2027  -0.0000  0.0042  !             
  0.2162   0.2162  -0.0000  0.0042  !             
  0.2297   0.2297   0.0000  0.0042  !             
  0.2432   0.2432  -0.0000  0.0042  !             
  0.2568   0.2568   0.0000  0.0042  !             
  0.2703   0.2703   0.0000  0.0042  !             
  0.2838   0.2838   0.0000  0.0042  !             
  0.2973   0.2973   0.0000  0.0042  !             
  0.3108   0.3108   0.0000  0.0042  !             
  0.3243   0.3243  -0.0000  0.0042  !             
  0.3378   0.3378  -0.0000  0.0042  !             
  0.3514   0.3514  -0.0000  0.0042  !             
  0.3649   0.3649  -0.0000  0.0042  !             
  0.3784   0.3784   0.0000  0.0042  !             
  0.3919   0.3919  -0.0000  0.0042  !             
  0.4054   0.4054  -0.0000  0.0042  !             
  0.4189   0.4189   0.0000  0.0042  !             
  0.4324   0.4324  -0.0000  0.0042  !             
  0.4459   0.4459  -0.0000  0.0042  !             
  0.4595   0.4595   0.0000  0.0042  !             
  0.4730   0.4730  -0.0000  0.0042  !             
  0.4865   0.4865  -0.0000  0.0042  !             
  0.5000   0.5000  -0.0000  0.0042  ! $V$         