Automatically generated mesh
241
Reciprocal lattice
  0.0000   0.0000   0.0000  0.0041  ! $\Gamma$    
  0.0172   0.0000  -0.0000  0.0041  !             
  0.0345   0.0000  -0.0000  0.0041  !             
  0.0517  -0.0000  -0.0000  0.0041  !             
  0.0690   0.0000  -0.0000  0.0041  !             
  0.0862  -0.0000  -0.0000  0.0041  !             
  0.1034  -0.0000  -0.0000  0.0041  !             
  0.1207  -0.0000  -0.0000  0.0041  !             
  0.1379   0.0000  -0.0000  0.0041  !             
  0.1552   0.0000  -0.0000  0.0041  !             
  0.1724  -0.0000  -0.0000  0.0041  !             
  0.1897  -0.0000   0.0000  0.0041  !             
  0.2069  -0.0000  -0.0000  0.0041  !             
  0.2241  -0.0000   0.0000  0.0041  !             
  0.2414  -0.0000  -0.0000  0.0041  !             
  0.2586   0.0000   0.0000  0.0041  !             
  0.2759   0.0000  -0.0000  0.0041  !             
  0.2931  -0.0000  -0.0000  0.0041  !             
  0.3103   0.0000  -0.0000  0.0041  !             
  0.3276  -0.0000  -0.0000  0.0041  !             
  0.3448  -0.0000  -0.0000  0.0041  !             
  0.3621   0.0000   0.0000  0.0041  !             
  0.3793  -0.0000   0.0000  0.0041  !             
  0.3966   0.0000   0.0000  0.0041  !             
  0.4138  -0.0000  -0.0000  0.0041  !             
  0.4310   0.0000  -0.0000  0.0041  !             
  0.4483  -0.0000   0.0000  0.0041  !             
  0.4655   0.0000  -0.0000  0.0041  !             
  0.4828  -0.0000  -0.0000  0.0041  !             
  0.5000   0.0000  -0.0000  0.0041  ! $X$         
  0.0000   0.5000   0.0000  0.0041  ! $Y$         
  0.0000   0.4808   0.0000  0.0041  !             
  0.0000   0.4615   0.0000  0.0041  !             
  0.0000   0.4423   0.0000  0.0041  !             
  0.0000   0.4231   0.0000  0.0041  !             
  0.0000   0.4038   0.0000  0.0041  !             
  0.0000   0.3846   0.0000  0.0041  !             
  0.0000   0.3654   0.0000  0.0041  !             
  0.0000   0.3462   0.0000  0.0041  !             
  0.0000   0.3269   0.0000  0.0041  !             
  0.0000   0.3077   0.0000  0.0041  !             
  0.0000   0.2885   0.0000  0.0041  !             
  0.0000   0.2692   0.0000  0.0041  !             
  0.0000   0.2500   0.0000  0.0041  !             
  0.0000   0.2308   0.0000  0.0041  !             
  0.0000   0.2115   0.0000  0.0041  !             
  0.0000   0.1923   0.0000  0.0041  !             
  0.0000   0.1731   0.0000  0.0041  !             
  0.0000   0.1538   0.0000  0.0041  !             
  0.0000   0.1346   0.0000  0.0041  !             
  0.0000   0.1154   0.0000  0.0041  !             
  0.0000   0.0962   0.0000  0.0041  !             
  0.0000   0.0769   0.0000  0.0041  !             
  0.0000   0.0577   0.0000  0.0041  !             
  0.0000   0.0385   0.0000  0.0041  !             
  0.0000   0.0192   0.0000  0.0041  !             
  0.0000   0.0000   0.0000  0.0041  ! $\Gamma$    
  0.0000   0.0000   0.0000  0.0041  ! $\Gamma$    
  0.0000  -0.0000   0.0179  0.0041  !             
  0.0000  -0.0000   0.0357  0.0041  !             
  0.0000  -0.0000   0.0536  0.0041  !             
  0.0000  -0.0000   0.0714  0.0041  !             
  0.0000  -0.0000   0.0893  0.0041  !             
  0.0000  -0.0000   0.1071  0.0041  !             
  0.0000  -0.0000   0.1250  0.0041  !             
  0.0000  -0.0000   0.1429  0.0041  !             
  0.0000  -0.0000   0.1607  0.0041  !             
  0.0000  -0.0000   0.1786  0.0041  !             
  0.0000  -0.0000   0.1964  0.0041  !             
  0.0000  -0.0000   0.2143  0.0041  !             
  0.0000   0.0000   0.2321  0.0041  !             
  0.0000  -0.0000   0.2500  0.0041  !             
  0.0000  -0.0000   0.2679  0.0041  !             
  0.0000  -0.0000   0.2857  0.0041  !             
  0.0000   0.0000   0.3036  0.0041  !             
  0.0000  -0.0000   0.3214  0.0041  !             
  0.0000  -0.0000   0.3393  0.0041  !             
  0.0000  -0.0000   0.3571  0.0041  !             
  0.0000  -0.0000   0.3750  0.0041  !             
  0.0000  -0.0000   0.3929  0.0041  !             
  0.0000   0.0000   0.4107  0.0041  !             
  0.0000  -0.0000   0.4286  0.0041  !             
  0.0000  -0.0000   0.4464  0.0041  !             
  0.0000   0.0000   0.4643  0.0041  !             
  0.0000  -0.0000   0.4821  0.0041  !             
  0.0000  -0.0000   0.5000  0.0041  ! $Z$         
  0.5000   0.5000   0.5000  0.0041  ! $R$         
  0.4881   0.4881   0.4881  0.0041  !             
  0.4762   0.4762   0.4762  0.0041  !             
  0.4643   0.4643   0.4643  0.0041  !             
  0.4524   0.4524   0.4524  0.0041  !             
  0.4405   0.4405   0.4405  0.0041  !             
  0.4286   0.4286   0.4286  0.0041  !             
  0.4167   0.4167   0.4167  0.0041  !             
  0.4048   0.4048   0.4048  0.0041  !             
  0.3929   0.3929   0.3929  0.0041  !             
  0.3810   0.3810   0.3810  0.0041  !             
  0.3690   0.3690   0.3690  0.0041  !             
  0.3571   0.3571   0.3571  0.0041  !             
  0.3452   0.3452   0.3452  0.0041  !             
  0.3333   0.3333   0.3333  0.0041  !             
  0.3214   0.3214   0.3214  0.0041  !             
  0.3095   0.3095   0.3095  0.0041  !             
  0.2976   0.2976   0.2976  0.0041  !             
  0.2857   0.2857   0.2857  0.0041  !             
  0.2738   0.2738   0.2738  0.0041  !             
  0.2619   0.2619   0.2619  0.0041  !             
  0.2500   0.2500   0.2500  0.0041  !             
  0.2381   0.2381   0.2381  0.0041  !             
  0.2262   0.2262   0.2262  0.0041  !             
  0.2143   0.2143   0.2143  0.0041  !             
  0.2024   0.2024   0.2024  0.0041  !             
  0.1905   0.1905   0.1905  0.0041  !             
  0.1786   0.1786   0.1786  0.0041  !             
  0.1667   0.1667   0.1667  0.0041  !             
  0.1548   0.1548   0.1548  0.0041  !             
  0.1429   0.1429   0.1429  0.0041  !             
  0.1310   0.1310   0.1310  0.0041  !             
  0.1190   0.1190   0.1190  0.0041  !             
  0.1071   0.1071   0.1071  0.0041  !             
  0.0952   0.0952   0.0952  0.0041  !             
  0.0833   0.0833   0.0833  0.0041  !             
  0.0714   0.0714   0.0714  0.0041  !             
  0.0595   0.0595   0.0595  0.0041  !             
  0.0476   0.0476   0.0476  0.0041  !             
  0.0357   0.0357   0.0357  0.0041  !             
  0.0238   0.0238   0.0238  0.0041  !             
  0.0119   0.0119   0.0119  0.0041  !             
  0.0000   0.0000   0.0000  0.0041  ! $\Gamma$    
  0.0000   0.0000   0.0000  0.0041  ! $\Gamma$    
  0.0000   0.0143   0.0143  0.0041  !             
  0.0000   0.0286   0.0286  0.0041  !             
  0.0000   0.0429   0.0429  0.0041  !             
  0.0000   0.0571   0.0571  0.0041  !             
  0.0000   0.0714   0.0714  0.0041  !             
  0.0000   0.0857   0.0857  0.0041  !             
  0.0000   0.1000   0.1000  0.0041  !             
  0.0000   0.1143   0.1143  0.0041  !             
  0.0000   0.1286   0.1286  0.0041  !             
  0.0000   0.1429   0.1429  0.0041  !             
  0.0000   0.1571   0.1571  0.0041  !             
  0.0000   0.1714   0.1714  0.0041  !             
  0.0000   0.1857   0.1857  0.0041  !             
  0.0000   0.2000   0.2000  0.0041  !             
  0.0000   0.2143   0.2143  0.0041  !             
  0.0000   0.2286   0.2286  0.0041  !             
  0.0000   0.2429   0.2429  0.0041  !             
  0.0000   0.2571   0.2571  0.0041  !             
  0.0000   0.2714   0.2714  0.0041  !             
  0.0000   0.2857   0.2857  0.0041  !             
  0.0000   0.3000   0.3000  0.0041  !             
  0.0000   0.3143   0.3143  0.0041  !             
  0.0000   0.3286   0.3286  0.0041  !             
  0.0000   0.3429   0.3429  0.0041  !             
  0.0000   0.3571   0.3571  0.0041  !             
  0.0000   0.3714   0.3714  0.0041  !             
  0.0000   0.3857   0.3857  0.0041  !             
  0.0000   0.4000   0.4000  0.0041  !             
  0.0000   0.4143   0.4143  0.0041  !             
  0.0000   0.4286   0.4286  0.0041  !             
  0.0000   0.4429   0.4429  0.0041  !             
  0.0000   0.4571   0.4571  0.0041  !             
  0.0000   0.4714   0.4714  0.0041  !             
  0.0000   0.4857   0.4857  0.0041  !             
  0.0000   0.5000   0.5000  0.0041  ! $T$         
  0.5000   0.0000   0.5000  0.0041  ! $U$         
  0.4865   0.0000   0.4865  0.0041  !             
  0.4730   0.0000   0.4730  0.0041  !             
  0.4595   0.0000   0.4595  0.0041  !             
  0.4459   0.0000   0.4459  0.0041  !             
  0.4324   0.0000   0.4324  0.0041  !             
  0.4189   0.0000   0.4189  0.0041  !             
  0.4054   0.0000   0.4054  0.0041  !             
  0.3919   0.0000   0.3919  0.0041  !             
  0.3784   0.0000   0.3784  0.0041  !             
  0.3649   0.0000   0.3649  0.0041  !             
  0.3514   0.0000   0.3514  0.0041  !             
  0.3378  -0.0000   0.3378  0.0041  !             
  0.3243   0.0000   0.3243  0.0041  !             
  0.3108   0.0000   0.3108  0.0041  !             
  0.2973   0.0000   0.2973  0.0041  !             
  0.2838  -0.0000   0.2838  0.0041  !             
  0.2703   0.0000   0.2703  0.0041  !             
  0.2568   0.0000   0.2568  0.0041  !             
  0.2432   0.0000   0.2432  0.0041  !             
  0.2297   0.0000   0.2297  0.0041  !             
  0.2162   0.0000   0.2162  0.0041  !             
  0.2027   0.0000   0.2027  0.0041  !             
  0.1892  -0.0000   0.1892  0.0041  !             
  0.1757  -0.0000   0.1757  0.0041  !             
  0.1622   0.0000   0.1622  0.0041  !             
  0.1486   0.0000   0.1486  0.0041  !             
  0.1351  -0.0000   0.1351  0.0041  !             
  0.1216   0.0000   0.1216  0.0041  !             
  0.1081   0.0000   0.1081  0.0041  !             
  0.0946   0.0000   0.0946  0.0041  !             
  0.0811   0.0000   0.0811  0.0041  !             
  0.0676   0.0000   0.0676  0.0041  !             
  0.0541  -0.0000   0.0541  0.0041  !             
  0.0405   0.0000   0.0405  0.0041  !             
  0.0270   0.0000   0.0270  0.0041  !             
  0.0135   0.0000   0.0135  0.0041  !             
  0.0000   0.0000   0.0000  0.0041  ! $\Gamma$    
  0.0000   0.0000   0.0000  0.0041  ! $\Gamma$    
  0.0135   0.0135  -0.0000  0.0041  !             
  0.0270   0.0270  -0.0000  0.0041  !             
  0.0405   0.0405  -0.0000  0.0041  !             
  0.0541   0.0541  -0.0000  0.0041  !             
  0.0676   0.0676   0.0000  0.0041  !             
  0.0811   0.0811  -0.0000  0.0041  !             
  0.0946   0.0946  -0.0000  0.0041  !             
  0.1081   0.1081  -0.0000  0.0041  !             
  0.1216   0.1216  -0.0000  0.0041  !             
  0.1351   0.1351   0.0000  0.0041  !             
  0.1486   0.1486   0.0000  0.0041  !             
  0.1622   0.1622  -0.0000  0.0041  !             
  0.1757   0.1757   0.0000  0.0041  !             
  0.1892   0.1892  -0.0000  0.0041  !             
  0.2027   0.2027   0.0000  0.0041  !             
  0.2162   0.2162  -0.0000  0.0041  !             
  0.2297   0.2297  -0.0000  0.0041  !             
  0.2432   0.2432  -0.0000  0.0041  !             
  0.2568   0.2568   0.0000  0.0041  !             
  0.2703   0.2703   0.0000  0.0041  !             
  0.2838   0.2838   0.0000  0.0041  !             
  0.2973   0.2973   0.0000  0.0041  !             
  0.3108   0.3108   0.0000  0.0041  !             
  0.3243   0.3243  -0.0000  0.0041  !             
  0.3378   0.3378  -0.0000  0.0041  !             
  0.3514   0.3514   0.0000  0.0041  !             
  0.3649   0.3649   0.0000  0.0041  !             
  0.3784   0.3784  -0.0000  0.0041  !             
  0.3919   0.3919  -0.0000  0.0041  !             
  0.4054   0.4054   0.0000  0.0041  !             
  0.4189   0.4189   0.0000  0.0041  !             
  0.4324   0.4324  -0.0000  0.0041  !             
  0.4459   0.4459  -0.0000  0.0041  !             
  0.4595   0.4595  -0.0000  0.0041  !             
  0.4730   0.4730  -0.0000  0.0041  !             
  0.4865   0.4865  -0.0000  0.0041  !             
  0.5000   0.5000  -0.0000  0.0041  ! $V$         