Automatically generated mesh
214
Reciprocal lattice
  0.0000   0.0000   0.0000  0.0047  ! $\Gamma$    
  0.0000   0.0000   0.0179  0.0047  !             
  0.0000   0.0000   0.0357  0.0047  !             
  0.0000   0.0000   0.0536  0.0047  !             
  0.0000   0.0000   0.0714  0.0047  !             
  0.0000   0.0000   0.0893  0.0047  !             
  0.0000   0.0000   0.1071  0.0047  !             
  0.0000   0.0000   0.1250  0.0047  !             
  0.0000   0.0000   0.1429  0.0047  !             
  0.0000   0.0000   0.1607  0.0047  !             
  0.0000   0.0000   0.1786  0.0047  !             
  0.0000   0.0000   0.1964  0.0047  !             
  0.0000   0.0000   0.2143  0.0047  !             
  0.0000   0.0000   0.2321  0.0047  !             
  0.0000   0.0000   0.2500  0.0047  !             
  0.0000   0.0000   0.2679  0.0047  !             
  0.0000   0.0000   0.2857  0.0047  !             
  0.0000   0.0000   0.3036  0.0047  !             
  0.0000   0.0000   0.3214  0.0047  !             
  0.0000   0.0000   0.3393  0.0047  !             
  0.0000   0.0000   0.3571  0.0047  !             
  0.0000   0.0000   0.3750  0.0047  !             
  0.0000   0.0000   0.3929  0.0047  !             
  0.0000   0.0000   0.4107  0.0047  !             
  0.0000   0.0000   0.4286  0.0047  !             
  0.0000   0.0000   0.4464  0.0047  !             
  0.0000   0.0000   0.4643  0.0047  !             
  0.0000   0.0000   0.4821  0.0047  !             
  0.0000   0.0000   0.5000  0.0047  ! $A$         
  0.0000   0.0000   0.5000  0.0047  ! $A$         
  0.0129   0.0129   0.5000  0.0047  !             
  0.0258   0.0258   0.5000  0.0047  !             
  0.0387   0.0387   0.5000  0.0047  !             
  0.0516   0.0516   0.5000  0.0047  !             
  0.0645   0.0645   0.5000  0.0047  !             
  0.0774   0.0774   0.5000  0.0047  !             
  0.0903   0.0903   0.5000  0.0047  !             
  0.1032   0.1032   0.5000  0.0047  !             
  0.1161   0.1161   0.5000  0.0047  !             
  0.1290   0.1290   0.5000  0.0047  !             
  0.1419   0.1419   0.5000  0.0047  !             
  0.1548   0.1548   0.5000  0.0047  !             
  0.1677   0.1677   0.5000  0.0047  !             
  0.1806   0.1806   0.5000  0.0047  !             
  0.1935   0.1935   0.5000  0.0047  !             
  0.2064   0.2064   0.5000  0.0047  !             
  0.2193   0.2193   0.5000  0.0047  !             
  0.2322   0.2322   0.5000  0.0047  !             
  0.2451   0.2451   0.5000  0.0047  !             
  0.2580   0.2580   0.5000  0.0047  !             
  0.2709   0.2709   0.5000  0.0047  !             
  0.2838   0.2838   0.5000  0.0047  !             
  0.2966   0.2966   0.5000  0.0047  !             
  0.3095   0.3095   0.5000  0.0047  !             
  0.3224   0.3224   0.5000  0.0047  !             
  0.3353   0.3353   0.5000  0.0047  !             
  0.3482   0.3482   0.5000  0.0047  !             
  0.3611   0.3611   0.5000  0.0047  !             
  0.3740   0.3740   0.5000  0.0047  ! $I_2$       
 -0.3740   0.6260   0.5000  0.0047  ! $I$         
 -0.3866   0.6134   0.5000  0.0047  !             
 -0.3992   0.6008   0.5000  0.0047  !             
 -0.4118   0.5882   0.5000  0.0047  !             
 -0.4244   0.5756   0.5000  0.0047  !             
 -0.4370   0.5630   0.5000  0.0047  !             
 -0.4496   0.5504   0.5000  0.0047  !             
 -0.4622   0.5378   0.5000  0.0047  !             
 -0.4748   0.5252   0.5000  0.0047  !             
 -0.4874   0.5126   0.5000  0.0047  !             
 -0.5000   0.5000   0.5000  0.0047  ! $M_2$       
 -0.5000   0.5000   0.5000  0.0047  ! $M_2$       
 -0.4872   0.4872   0.4872  0.0047  !             
 -0.4744   0.4744   0.4744  0.0047  !             
 -0.4615   0.4615   0.4615  0.0047  !             
 -0.4487   0.4487   0.4487  0.0047  !             
 -0.4359   0.4359   0.4359  0.0047  !             
 -0.4231   0.4231   0.4231  0.0047  !             
 -0.4103   0.4103   0.4103  0.0047  !             
 -0.3974   0.3974   0.3974  0.0047  !             
 -0.3846   0.3846   0.3846  0.0047  !             
 -0.3718   0.3718   0.3718  0.0047  !             
 -0.3590   0.3590   0.3590  0.0047  !             
 -0.3462   0.3462   0.3462  0.0047  !             
 -0.3333   0.3333   0.3333  0.0047  !             
 -0.3205   0.3205   0.3205  0.0047  !             
 -0.3077   0.3077   0.3077  0.0047  !             
 -0.2949   0.2949   0.2949  0.0047  !             
 -0.2821   0.2821   0.2821  0.0047  !             
 -0.2692   0.2692   0.2692  0.0047  !             
 -0.2564   0.2564   0.2564  0.0047  !             
 -0.2436   0.2436   0.2436  0.0047  !             
 -0.2308   0.2308   0.2308  0.0047  !             
 -0.2179   0.2179   0.2179  0.0047  !             
 -0.2051   0.2051   0.2051  0.0047  !             
 -0.1923   0.1923   0.1923  0.0047  !             
 -0.1795   0.1795   0.1795  0.0047  !             
 -0.1667   0.1667   0.1667  0.0047  !             
 -0.1538   0.1538   0.1538  0.0047  !             
 -0.1410   0.1410   0.1410  0.0047  !             
 -0.1282   0.1282   0.1282  0.0047  !             
 -0.1154   0.1154   0.1154  0.0047  !             
 -0.1026   0.1026   0.1026  0.0047  !             
 -0.0897   0.0897   0.0897  0.0047  !             
 -0.0769   0.0769   0.0769  0.0047  !             
 -0.0641   0.0641   0.0641  0.0047  !             
 -0.0513   0.0513   0.0513  0.0047  !             
 -0.0385   0.0385   0.0385  0.0047  !             
 -0.0256   0.0256   0.0256  0.0047  !             
 -0.0128   0.0128   0.0128  0.0047  !             
  0.0000   0.0000   0.0000  0.0047  ! $\Gamma$    
  0.0000   0.0000   0.0000  0.0047  ! $\Gamma$    
  0.0128   0.0128   0.0000  0.0047  !             
  0.0256   0.0256   0.0000  0.0047  !             
  0.0385   0.0385   0.0000  0.0047  !             
  0.0513   0.0513   0.0000  0.0047  !             
  0.0641   0.0641   0.0000  0.0047  !             
  0.0769   0.0769   0.0000  0.0047  !             
  0.0897   0.0897   0.0000  0.0047  !             
  0.1026   0.1026   0.0000  0.0047  !             
  0.1154   0.1154   0.0000  0.0047  !             
  0.1282   0.1282   0.0000  0.0047  !             
  0.1410   0.1410   0.0000  0.0047  !             
  0.1538   0.1538   0.0000  0.0047  !             
  0.1667   0.1667   0.0000  0.0047  !             
  0.1795   0.1795   0.0000  0.0047  !             
  0.1923   0.1923   0.0000  0.0047  !             
  0.2051   0.2051   0.0000  0.0047  !             
  0.2179   0.2179   0.0000  0.0047  !             
  0.2308   0.2308   0.0000  0.0047  !             
  0.2436   0.2436   0.0000  0.0047  !             
  0.2564   0.2564   0.0000  0.0047  !             
  0.2692   0.2692   0.0000  0.0047  !             
  0.2821   0.2821   0.0000  0.0047  !             
  0.2949   0.2949   0.0000  0.0047  !             
  0.3077   0.3077   0.0000  0.0047  !             
  0.3205   0.3205   0.0000  0.0047  !             
  0.3333   0.3333   0.0000  0.0047  !             
  0.3462   0.3462   0.0000  0.0047  !             
  0.3590   0.3590   0.0000  0.0047  !             
  0.3718   0.3718   0.0000  0.0047  !             
  0.3846   0.3846   0.0000  0.0047  !             
  0.3974   0.3974   0.0000  0.0047  !             
  0.4103   0.4103   0.0000  0.0047  !             
  0.4231   0.4231   0.0000  0.0047  !             
  0.4359   0.4359   0.0000  0.0047  !             
  0.4487   0.4487   0.0000  0.0047  !             
  0.4615   0.4615   0.0000  0.0047  !             
  0.4744   0.4744   0.0000  0.0047  !             
  0.4872   0.4872   0.0000  0.0047  !             
  0.5000   0.5000   0.0000  0.0047  ! $Y$         
  0.0000   0.5000   0.5000  0.0047  ! $L_2$       
  0.0000   0.4839   0.4839  0.0047  !             
 -0.0000   0.4677   0.4677  0.0047  !             
  0.0000   0.4516   0.4516  0.0047  !             
 -0.0000   0.4355   0.4355  0.0047  !             
  0.0000   0.4194   0.4194  0.0047  !             
 -0.0000   0.4032   0.4032  0.0047  !             
  0.0000   0.3871   0.3871  0.0047  !             
 -0.0000   0.3710   0.3710  0.0047  !             
 -0.0000   0.3548   0.3548  0.0047  !             
 -0.0000   0.3387   0.3387  0.0047  !             
 -0.0000   0.3226   0.3226  0.0047  !             
  0.0000   0.3065   0.3065  0.0047  !             
  0.0000   0.2903   0.2903  0.0047  !             
  0.0000   0.2742   0.2742  0.0047  !             
 -0.0000   0.2581   0.2581  0.0047  !             
  0.0000   0.2419   0.2419  0.0047  !             
  0.0000   0.2258   0.2258  0.0047  !             
  0.0000   0.2097   0.2097  0.0047  !             
  0.0000   0.1935   0.1935  0.0047  !             
 -0.0000   0.1774   0.1774  0.0047  !             
 -0.0000   0.1613   0.1613  0.0047  !             
 -0.0000   0.1452   0.1452  0.0047  !             
 -0.0000   0.1290   0.1290  0.0047  !             
  0.0000   0.1129   0.1129  0.0047  !             
 -0.0000   0.0968   0.0968  0.0047  !             
  0.0000   0.0806   0.0806  0.0047  !             
  0.0000   0.0645   0.0645  0.0047  !             
  0.0000   0.0484   0.0484  0.0047  !             
  0.0000   0.0323   0.0323  0.0047  !             
  0.0000   0.0161   0.0161  0.0047  !             
  0.0000   0.0000   0.0000  0.0047  ! $\Gamma$    
  0.0000   0.0000   0.0000  0.0047  ! $\Gamma$    
 -0.0000   0.0161   0.0000  0.0047  !             
 -0.0000   0.0323   0.0000  0.0047  !             
 -0.0000   0.0484   0.0000  0.0047  !             
 -0.0000   0.0645   0.0000  0.0047  !             
  0.0000   0.0806   0.0000  0.0047  !             
 -0.0000   0.0968   0.0000  0.0047  !             
  0.0000   0.1129   0.0000  0.0047  !             
 -0.0000   0.1290   0.0000  0.0047  !             
  0.0000   0.1452  -0.0000  0.0047  !             
  0.0000   0.1613   0.0000  0.0047  !             
  0.0000   0.1774   0.0000  0.0047  !             
 -0.0000   0.1935   0.0000  0.0047  !             
  0.0000   0.2097   0.0000  0.0047  !             
  0.0000   0.2258   0.0000  0.0047  !             
  0.0000   0.2419   0.0000  0.0047  !             
 -0.0000   0.2581   0.0000  0.0047  !             
  0.0000   0.2742   0.0000  0.0047  !             
  0.0000   0.2903  -0.0000  0.0047  !             
 -0.0000   0.3065   0.0000  0.0047  !             
  0.0000   0.3226   0.0000  0.0047  !             
  0.0000   0.3387  -0.0000  0.0047  !             
  0.0000   0.3548   0.0000  0.0047  !             
  0.0000   0.3710  -0.0000  0.0047  !             
 -0.0000   0.3871   0.0000  0.0047  !             
  0.0000   0.4032   0.0000  0.0047  !             
  0.0000   0.4194   0.0000  0.0047  !             
 -0.0000   0.4355  -0.0000  0.0047  !             
  0.0000   0.4516   0.0000  0.0047  !             
 -0.0000   0.4677  -0.0000  0.0047  !             
  0.0000   0.4839   0.0000  0.0047  !             
  0.0000   0.5000  -0.0000  0.0047  ! $V_2$       