Automatically generated mesh
306
Reciprocal lattice
  0.0000   0.0000   0.0000  0.0033  ! $\Gamma$    
 -0.0156   0.0156   0.0000  0.0033  !             
 -0.0312   0.0312   0.0000  0.0033  !             
 -0.0469   0.0469   0.0000  0.0033  !             
 -0.0625   0.0625   0.0000  0.0033  !             
 -0.0781   0.0781   0.0000  0.0033  !             
 -0.0938   0.0938   0.0000  0.0033  !             
 -0.1094   0.1094   0.0000  0.0033  !             
 -0.1250   0.1250   0.0000  0.0033  !             
 -0.1406   0.1406   0.0000  0.0033  !             
 -0.1563   0.1563   0.0000  0.0033  !             
 -0.1719   0.1719   0.0000  0.0033  !             
 -0.1875   0.1875   0.0000  0.0033  !             
 -0.2031   0.2031   0.0000  0.0033  !             
 -0.2188   0.2188   0.0000  0.0033  !             
 -0.2344   0.2344   0.0000  0.0033  !             
 -0.2500   0.2500   0.0000  0.0033  !             
 -0.2656   0.2656   0.0000  0.0033  !             
 -0.2812   0.2812   0.0000  0.0033  !             
 -0.2969   0.2969   0.0000  0.0033  !             
 -0.3125   0.3125   0.0000  0.0033  !             
 -0.3281   0.3281   0.0000  0.0033  !             
 -0.3438   0.3438   0.0000  0.0033  !             
 -0.3594   0.3594   0.0000  0.0033  !             
 -0.3750   0.3750   0.0000  0.0033  !             
 -0.3906   0.3906   0.0000  0.0033  !             
 -0.4062   0.4062   0.0000  0.0033  !             
 -0.4219   0.4219   0.0000  0.0033  !             
 -0.4375   0.4375   0.0000  0.0033  !             
 -0.4531   0.4531   0.0000  0.0033  !             
 -0.4688   0.4688   0.0000  0.0033  !             
 -0.4844   0.4844   0.0000  0.0033  !             
 -0.5000   0.5000   0.0000  0.0033  ! $Y$         
 -0.5000   0.5000   0.0000  0.0033  ! $Y$         
 -0.4897   0.5103   0.0000  0.0033  !             
 -0.4794   0.5206   0.0000  0.0033  ! $C_0$       
  0.4794   0.4794   0.0000  0.0033  ! $SIGMA_0$   
  0.4644   0.4644   0.0000  0.0033  !             
  0.4494   0.4494   0.0000  0.0033  !             
  0.4344   0.4344   0.0000  0.0033  !             
  0.4195   0.4195   0.0000  0.0033  !             
  0.4045   0.4045   0.0000  0.0033  !             
  0.3895   0.3895   0.0000  0.0033  !             
  0.3745   0.3745   0.0000  0.0033  !             
  0.3595   0.3595   0.0000  0.0033  !             
  0.3445   0.3445   0.0000  0.0033  !             
  0.3296   0.3296   0.0000  0.0033  !             
  0.3146   0.3146   0.0000  0.0033  !             
  0.2996   0.2996   0.0000  0.0033  !             
  0.2846   0.2846   0.0000  0.0033  !             
  0.2696   0.2696   0.0000  0.0033  !             
  0.2547   0.2547   0.0000  0.0033  !             
  0.2397   0.2397   0.0000  0.0033  !             
  0.2247   0.2247   0.0000  0.0033  !             
  0.2097   0.2097   0.0000  0.0033  !             
  0.1947   0.1947   0.0000  0.0033  !             
  0.1798   0.1798   0.0000  0.0033  !             
  0.1648   0.1648   0.0000  0.0033  !             
  0.1498   0.1498   0.0000  0.0033  !             
  0.1348   0.1348   0.0000  0.0033  !             
  0.1198   0.1198   0.0000  0.0033  !             
  0.1049   0.1049   0.0000  0.0033  !             
  0.0899   0.0899   0.0000  0.0033  !             
  0.0749   0.0749   0.0000  0.0033  !             
  0.0599   0.0599   0.0000  0.0033  !             
  0.0449   0.0449   0.0000  0.0033  !             
  0.0300   0.0300   0.0000  0.0033  !             
  0.0150   0.0150   0.0000  0.0033  !             
  0.0000   0.0000   0.0000  0.0033  ! $\Gamma$    
  0.0000   0.0000   0.0000  0.0033  ! $\Gamma$    
  0.0000   0.0000   0.0128  0.0033  !             
  0.0000   0.0000   0.0256  0.0033  !             
  0.0000   0.0000   0.0385  0.0033  !             
  0.0000   0.0000   0.0513  0.0033  !             
  0.0000   0.0000   0.0641  0.0033  !             
  0.0000   0.0000   0.0769  0.0033  !             
  0.0000   0.0000   0.0897  0.0033  !             
  0.0000   0.0000   0.1026  0.0033  !             
  0.0000   0.0000   0.1154  0.0033  !             
  0.0000   0.0000   0.1282  0.0033  !             
  0.0000   0.0000   0.1410  0.0033  !             
  0.0000   0.0000   0.1538  0.0033  !             
  0.0000   0.0000   0.1667  0.0033  !             
  0.0000   0.0000   0.1795  0.0033  !             
  0.0000   0.0000   0.1923  0.0033  !             
  0.0000   0.0000   0.2051  0.0033  !             
  0.0000   0.0000   0.2179  0.0033  !             
  0.0000   0.0000   0.2308  0.0033  !             
  0.0000   0.0000   0.2436  0.0033  !             
  0.0000   0.0000   0.2564  0.0033  !             
  0.0000   0.0000   0.2692  0.0033  !             
  0.0000   0.0000   0.2821  0.0033  !             
  0.0000   0.0000   0.2949  0.0033  !             
  0.0000   0.0000   0.3077  0.0033  !             
  0.0000   0.0000   0.3205  0.0033  !             
  0.0000   0.0000   0.3333  0.0033  !             
  0.0000   0.0000   0.3462  0.0033  !             
  0.0000   0.0000   0.3590  0.0033  !             
  0.0000   0.0000   0.3718  0.0033  !             
  0.0000   0.0000   0.3846  0.0033  !             
  0.0000   0.0000   0.3974  0.0033  !             
  0.0000   0.0000   0.4103  0.0033  !             
  0.0000   0.0000   0.4231  0.0033  !             
  0.0000   0.0000   0.4359  0.0033  !             
  0.0000   0.0000   0.4487  0.0033  !             
  0.0000   0.0000   0.4615  0.0033  !             
  0.0000   0.0000   0.4744  0.0033  !             
  0.0000   0.0000   0.4872  0.0033  !             
  0.0000   0.0000   0.5000  0.0033  ! $Z$         
  0.0000   0.0000   0.5000  0.0033  ! $Z$         
  0.0150   0.0150   0.5000  0.0033  !             
  0.0300   0.0300   0.5000  0.0033  !             
  0.0449   0.0449   0.5000  0.0033  !             
  0.0599   0.0599   0.5000  0.0033  !             
  0.0749   0.0749   0.5000  0.0033  !             
  0.0899   0.0899   0.5000  0.0033  !             
  0.1049   0.1049   0.5000  0.0033  !             
  0.1198   0.1198   0.5000  0.0033  !             
  0.1348   0.1348   0.5000  0.0033  !             
  0.1498   0.1498   0.5000  0.0033  !             
  0.1648   0.1648   0.5000  0.0033  !             
  0.1798   0.1798   0.5000  0.0033  !             
  0.1947   0.1947   0.5000  0.0033  !             
  0.2097   0.2097   0.5000  0.0033  !             
  0.2247   0.2247   0.5000  0.0033  !             
  0.2397   0.2397   0.5000  0.0033  !             
  0.2547   0.2547   0.5000  0.0033  !             
  0.2696   0.2696   0.5000  0.0033  !             
  0.2846   0.2846   0.5000  0.0033  !             
  0.2996   0.2996   0.5000  0.0033  !             
  0.3146   0.3146   0.5000  0.0033  !             
  0.3296   0.3296   0.5000  0.0033  !             
  0.3445   0.3445   0.5000  0.0033  !             
  0.3595   0.3595   0.5000  0.0033  !             
  0.3745   0.3745   0.5000  0.0033  !             
  0.3895   0.3895   0.5000  0.0033  !             
  0.4045   0.4045   0.5000  0.0033  !             
  0.4195   0.4195   0.5000  0.0033  !             
  0.4344   0.4344   0.5000  0.0033  !             
  0.4494   0.4494   0.5000  0.0033  !             
  0.4644   0.4644   0.5000  0.0033  !             
  0.4794   0.4794   0.5000  0.0033  ! $A_0$       
 -0.4794   0.5206   0.5000  0.0033  ! $E_0$       
 -0.4897   0.5103   0.5000  0.0033  !             
 -0.5000   0.5000   0.5000  0.0033  ! $T$         
 -0.5000   0.5000   0.5000  0.0033  ! $T$         
 -0.5000   0.5000   0.4872  0.0033  !             
 -0.5000   0.5000   0.4744  0.0033  !             
 -0.5000   0.5000   0.4615  0.0033  !             
 -0.5000   0.5000   0.4487  0.0033  !             
 -0.5000   0.5000   0.4359  0.0033  !             
 -0.5000   0.5000   0.4231  0.0033  !             
 -0.5000   0.5000   0.4103  0.0033  !             
 -0.5000   0.5000   0.3974  0.0033  !             
 -0.5000   0.5000   0.3846  0.0033  !             
 -0.5000   0.5000   0.3718  0.0033  !             
 -0.5000   0.5000   0.3590  0.0033  !             
 -0.5000   0.5000   0.3462  0.0033  !             
 -0.5000   0.5000   0.3333  0.0033  !             
 -0.5000   0.5000   0.3205  0.0033  !             
 -0.5000   0.5000   0.3077  0.0033  !             
 -0.5000   0.5000   0.2949  0.0033  !             
 -0.5000   0.5000   0.2821  0.0033  !             
 -0.5000   0.5000   0.2692  0.0033  !             
 -0.5000   0.5000   0.2564  0.0033  !             
 -0.5000   0.5000   0.2436  0.0033  !             
 -0.5000   0.5000   0.2308  0.0033  !             
 -0.5000   0.5000   0.2179  0.0033  !             
 -0.5000   0.5000   0.2051  0.0033  !             
 -0.5000   0.5000   0.1923  0.0033  !             
 -0.5000   0.5000   0.1795  0.0033  !             
 -0.5000   0.5000   0.1667  0.0033  !             
 -0.5000   0.5000   0.1538  0.0033  !             
 -0.5000   0.5000   0.1410  0.0033  !             
 -0.5000   0.5000   0.1282  0.0033  !             
 -0.5000   0.5000   0.1154  0.0033  !             
 -0.5000   0.5000   0.1026  0.0033  !             
 -0.5000   0.5000   0.0897  0.0033  !             
 -0.5000   0.5000   0.0769  0.0033  !             
 -0.5000   0.5000   0.0641  0.0033  !             
 -0.5000   0.5000   0.0513  0.0033  !             
 -0.5000   0.5000   0.0385  0.0033  !             
 -0.5000   0.5000   0.0256  0.0033  !             
 -0.5000   0.5000   0.0128  0.0033  !             
 -0.5000   0.5000   0.0000  0.0033  ! $Y$         
  0.0000   0.0000   0.0000  0.0033  ! $\Gamma$    
 -0.0000   0.0217   0.0000  0.0033  !             
 -0.0000   0.0435   0.0000  0.0033  !             
 -0.0000   0.0652   0.0000  0.0033  !             
 -0.0000   0.0870   0.0000  0.0033  !             
 -0.0000   0.1087   0.0000  0.0033  !             
 -0.0000   0.1304   0.0000  0.0033  !             
 -0.0000   0.1522   0.0000  0.0033  !             
 -0.0000   0.1739   0.0000  0.0033  !             
 -0.0000   0.1957   0.0000  0.0033  !             
 -0.0000   0.2174   0.0000  0.0033  !             
 -0.0000   0.2391   0.0000  0.0033  !             
 -0.0000   0.2609   0.0000  0.0033  !             
 -0.0000   0.2826   0.0000  0.0033  !             
 -0.0000   0.3043   0.0000  0.0033  !             
 -0.0000   0.3261   0.0000  0.0033  !             
 -0.0000   0.3478   0.0000  0.0033  !             
 -0.0000   0.3696   0.0000  0.0033  !             
 -0.0000   0.3913   0.0000  0.0033  !             
 -0.0000   0.4130   0.0000  0.0033  !             
 -0.0000   0.4348   0.0000  0.0033  !             
 -0.0000   0.4565   0.0000  0.0033  !             
 -0.0000   0.4783   0.0000  0.0033  !             
 -0.0000   0.5000   0.0000  0.0033  ! $S$         
 -0.0000   0.5000   0.0000  0.0033  ! $S$         
 -0.0000   0.5000   0.0128  0.0033  !             
 -0.0000   0.5000   0.0256  0.0033  !             
 -0.0000   0.5000   0.0385  0.0033  !             
 -0.0000   0.5000   0.0513  0.0033  !             
 -0.0000   0.5000   0.0641  0.0033  !             
 -0.0000   0.5000   0.0769  0.0033  !             
 -0.0000   0.5000   0.0897  0.0033  !             
 -0.0000   0.5000   0.1026  0.0033  !             
 -0.0000   0.5000   0.1154  0.0033  !             
 -0.0000   0.5000   0.1282  0.0033  !             
 -0.0000   0.5000   0.1410  0.0033  !             
 -0.0000   0.5000   0.1538  0.0033  !             
 -0.0000   0.5000   0.1667  0.0033  !             
 -0.0000   0.5000   0.1795  0.0033  !             
 -0.0000   0.5000   0.1923  0.0033  !             
 -0.0000   0.5000   0.2051  0.0033  !             
 -0.0000   0.5000   0.2179  0.0033  !             
 -0.0000   0.5000   0.2308  0.0033  !             
 -0.0000   0.5000   0.2436  0.0033  !             
 -0.0000   0.5000   0.2564  0.0033  !             
 -0.0000   0.5000   0.2692  0.0033  !             
 -0.0000   0.5000   0.2821  0.0033  !             
 -0.0000   0.5000   0.2949  0.0033  !             
 -0.0000   0.5000   0.3077  0.0033  !             
 -0.0000   0.5000   0.3205  0.0033  !             
 -0.0000   0.5000   0.3333  0.0033  !             
 -0.0000   0.5000   0.3462  0.0033  !             
 -0.0000   0.5000   0.3590  0.0033  !             
 -0.0000   0.5000   0.3718  0.0033  !             
 -0.0000   0.5000   0.3846  0.0033  !             
 -0.0000   0.5000   0.3974  0.0033  !             
 -0.0000   0.5000   0.4103  0.0033  !             
 -0.0000   0.5000   0.4231  0.0033  !             
 -0.0000   0.5000   0.4359  0.0033  !             
 -0.0000   0.5000   0.4487  0.0033  !             
 -0.0000   0.5000   0.4615  0.0033  !             
 -0.0000   0.5000   0.4744  0.0033  !             
 -0.0000   0.5000   0.4872  0.0033  !             
 -0.0000   0.5000   0.5000  0.0033  ! $R$         
 -0.0000   0.5000   0.5000  0.0033  ! $R$         
 -0.0000   0.4783   0.5000  0.0033  !             
 -0.0000   0.4565   0.5000  0.0033  !             
 -0.0000   0.4348   0.5000  0.0033  !             
 -0.0000   0.4130   0.5000  0.0033  !             
 -0.0000   0.3913   0.5000  0.0033  !             
 -0.0000   0.3696   0.5000  0.0033  !             
 -0.0000   0.3478   0.5000  0.0033  !             
 -0.0000   0.3261   0.5000  0.0033  !             
 -0.0000   0.3043   0.5000  0.0033  !             
 -0.0000   0.2826   0.5000  0.0033  !             
 -0.0000   0.2609   0.5000  0.0033  !             
 -0.0000   0.2391   0.5000  0.0033  !             
 -0.0000   0.2174   0.5000  0.0033  !             
 -0.0000   0.1957   0.5000  0.0033  !             
 -0.0000   0.1739   0.5000  0.0033  !             
 -0.0000   0.1522   0.5000  0.0033  !             
  0.0000   0.1304   0.5000  0.0033  !             
 -0.0000   0.1087   0.5000  0.0033  !             
 -0.0000   0.0870   0.5000  0.0033  !             
 -0.0000   0.0652   0.5000  0.0033  !             
 -0.0000   0.0435   0.5000  0.0033  !             
  0.0000   0.0217   0.5000  0.0033  !             
  0.0000   0.0000   0.5000  0.0033  ! $Z$         
  0.0000   0.0000   0.5000  0.0033  ! $Z$         
 -0.0156   0.0156   0.5000  0.0033  !             
 -0.0312   0.0312   0.5000  0.0033  !             
 -0.0469   0.0469   0.5000  0.0033  !             
 -0.0625   0.0625   0.5000  0.0033  !             
 -0.0781   0.0781   0.5000  0.0033  !             
 -0.0938   0.0938   0.5000  0.0033  !             
 -0.1094   0.1094   0.5000  0.0033  !             
 -0.1250   0.1250   0.5000  0.0033  !             
 -0.1406   0.1406   0.5000  0.0033  !             
 -0.1563   0.1563   0.5000  0.0033  !             
 -0.1719   0.1719   0.5000  0.0033  !             
 -0.1875   0.1875   0.5000  0.0033  !             
 -0.2031   0.2031   0.5000  0.0033  !             
 -0.2188   0.2188   0.5000  0.0033  !             
 -0.2344   0.2344   0.5000  0.0033  !             
 -0.2500   0.2500   0.5000  0.0033  !             
 -0.2656   0.2656   0.5000  0.0033  !             
 -0.2812   0.2812   0.5000  0.0033  !             
 -0.2969   0.2969   0.5000  0.0033  !             
 -0.3125   0.3125   0.5000  0.0033  !             
 -0.3281   0.3281   0.5000  0.0033  !             
 -0.3438   0.3438   0.5000  0.0033  !             
 -0.3594   0.3594   0.5000  0.0033  !             
 -0.3750   0.3750   0.5000  0.0033  !             
 -0.3906   0.3906   0.5000  0.0033  !             
 -0.4062   0.4062   0.5000  0.0033  !             
 -0.4219   0.4219   0.5000  0.0033  !             
 -0.4375   0.4375   0.5000  0.0033  !             
 -0.4531   0.4531   0.5000  0.0033  !             
 -0.4688   0.4688   0.5000  0.0033  !             
 -0.4844   0.4844   0.5000  0.0033  !             
 -0.5000   0.5000   0.5000  0.0033  ! $T$         