Automatically generated mesh
260
Reciprocal lattice
  0.0000   0.0000   0.0000  0.0038  ! $\Gamma$    
  0.0121   0.0121   0.0000  0.0038  !             
  0.0241   0.0241   0.0000  0.0038  !             
  0.0362   0.0362   0.0000  0.0038  !             
  0.0482   0.0482   0.0000  0.0038  !             
  0.0603   0.0603   0.0000  0.0038  !             
  0.0723   0.0723   0.0000  0.0038  !             
  0.0844   0.0844   0.0000  0.0038  !             
  0.0964   0.0964   0.0000  0.0038  !             
  0.1085   0.1085   0.0000  0.0038  !             
  0.1206   0.1206   0.0000  0.0038  !             
  0.1326   0.1326   0.0000  0.0038  !             
  0.1447   0.1447   0.0000  0.0038  !             
  0.1567   0.1567   0.0000  0.0038  !             
  0.1688   0.1688   0.0000  0.0038  !             
  0.1808   0.1808   0.0000  0.0038  !             
  0.1929   0.1929   0.0000  0.0038  !             
  0.2049   0.2049   0.0000  0.0038  !             
  0.2170   0.2170   0.0000  0.0038  !             
  0.2291   0.2291   0.0000  0.0038  !             
  0.2411   0.2411   0.0000  0.0038  !             
  0.2532   0.2532   0.0000  0.0038  !             
  0.2652   0.2652   0.0000  0.0038  !             
  0.2773   0.2773   0.0000  0.0038  !             
  0.2893   0.2893   0.0000  0.0038  !             
  0.3014   0.3014   0.0000  0.0038  !             
  0.3134   0.3134   0.0000  0.0038  !             
  0.3255   0.3255   0.0000  0.0038  !             
  0.3375   0.3375   0.0000  0.0038  !             
  0.3496   0.3496   0.0000  0.0038  !             
  0.3617   0.3617   0.0000  0.0038  !             
  0.3737   0.3737   0.0000  0.0038  !             
  0.3858   0.3858   0.0000  0.0038  !             
  0.3978   0.3978   0.0000  0.0038  !             
  0.4099   0.4099   0.0000  0.0038  !             
  0.4219   0.4219   0.0000  0.0038  !             
  0.4340   0.4340   0.0000  0.0038  ! $C$         
 -0.4340   0.5660  -0.0000  0.0038  ! $C_2$       
 -0.4450   0.5550  -0.0000  0.0038  !             
 -0.4560   0.5440  -0.0000  0.0038  !             
 -0.4670   0.5330  -0.0000  0.0038  !             
 -0.4780   0.5220  -0.0000  0.0038  !             
 -0.4890   0.5110  -0.0000  0.0038  !             
 -0.5000   0.5000  -0.0000  0.0038  ! $Y_2$       
 -0.5000   0.5000  -0.0000  0.0038  ! $Y_2$       
 -0.4861   0.4861  -0.0000  0.0038  !             
 -0.4722   0.4722   0.0000  0.0038  !             
 -0.4583   0.4583  -0.0000  0.0038  !             
 -0.4444   0.4444  -0.0000  0.0038  !             
 -0.4306   0.4306  -0.0000  0.0038  !             
 -0.4167   0.4167  -0.0000  0.0038  !             
 -0.4028   0.4028  -0.0000  0.0038  !             
 -0.3889   0.3889  -0.0000  0.0038  !             
 -0.3750   0.3750  -0.0000  0.0038  !             
 -0.3611   0.3611   0.0000  0.0038  !             
 -0.3472   0.3472  -0.0000  0.0038  !             
 -0.3333   0.3333  -0.0000  0.0038  !             
 -0.3194   0.3194  -0.0000  0.0038  !             
 -0.3056   0.3056  -0.0000  0.0038  !             
 -0.2917   0.2917  -0.0000  0.0038  !             
 -0.2778   0.2778  -0.0000  0.0038  !             
 -0.2639   0.2639  -0.0000  0.0038  !             
 -0.2500   0.2500  -0.0000  0.0038  !             
 -0.2361   0.2361   0.0000  0.0038  !             
 -0.2222   0.2222  -0.0000  0.0038  !             
 -0.2083   0.2083  -0.0000  0.0038  !             
 -0.1944   0.1944  -0.0000  0.0038  !             
 -0.1806   0.1806  -0.0000  0.0038  !             
 -0.1667   0.1667  -0.0000  0.0038  !             
 -0.1528   0.1528  -0.0000  0.0038  !             
 -0.1389   0.1389  -0.0000  0.0038  !             
 -0.1250   0.1250  -0.0000  0.0038  !             
 -0.1111   0.1111  -0.0000  0.0038  !             
 -0.0972   0.0972   0.0000  0.0038  !             
 -0.0833   0.0833   0.0000  0.0038  !             
 -0.0694   0.0694  -0.0000  0.0038  !             
 -0.0556   0.0556   0.0000  0.0038  !             
 -0.0417   0.0417  -0.0000  0.0038  !             
 -0.0278   0.0278  -0.0000  0.0038  !             
 -0.0139   0.0139  -0.0000  0.0038  !             
  0.0000   0.0000   0.0000  0.0038  ! $\Gamma$    
  0.0000   0.0000   0.0000  0.0038  ! $\Gamma$    
 -0.0125   0.0125   0.0125  0.0038  !             
 -0.0250   0.0250   0.0250  0.0038  !             
 -0.0375   0.0375   0.0375  0.0038  !             
 -0.0500   0.0500   0.0500  0.0038  !             
 -0.0625   0.0625   0.0625  0.0038  !             
 -0.0750   0.0750   0.0750  0.0038  !             
 -0.0875   0.0875   0.0875  0.0038  !             
 -0.1000   0.1000   0.1000  0.0038  !             
 -0.1125   0.1125   0.1125  0.0038  !             
 -0.1250   0.1250   0.1250  0.0038  !             
 -0.1375   0.1375   0.1375  0.0038  !             
 -0.1500   0.1500   0.1500  0.0038  !             
 -0.1625   0.1625   0.1625  0.0038  !             
 -0.1750   0.1750   0.1750  0.0038  !             
 -0.1875   0.1875   0.1875  0.0038  !             
 -0.2000   0.2000   0.2000  0.0038  !             
 -0.2125   0.2125   0.2125  0.0038  !             
 -0.2250   0.2250   0.2250  0.0038  !             
 -0.2375   0.2375   0.2375  0.0038  !             
 -0.2500   0.2500   0.2500  0.0038  !             
 -0.2625   0.2625   0.2625  0.0038  !             
 -0.2750   0.2750   0.2750  0.0038  !             
 -0.2875   0.2875   0.2875  0.0038  !             
 -0.3000   0.3000   0.3000  0.0038  !             
 -0.3125   0.3125   0.3125  0.0038  !             
 -0.3250   0.3250   0.3250  0.0038  !             
 -0.3375   0.3375   0.3375  0.0038  !             
 -0.3500   0.3500   0.3500  0.0038  !             
 -0.3625   0.3625   0.3625  0.0038  !             
 -0.3750   0.3750   0.3750  0.0038  !             
 -0.3875   0.3875   0.3875  0.0038  !             
 -0.4000   0.4000   0.4000  0.0038  !             
 -0.4125   0.4125   0.4125  0.0038  !             
 -0.4250   0.4250   0.4250  0.0038  !             
 -0.4375   0.4375   0.4375  0.0038  !             
 -0.4500   0.4500   0.4500  0.0038  !             
 -0.4625   0.4625   0.4625  0.0038  !             
 -0.4750   0.4750   0.4750  0.0038  !             
 -0.4875   0.4875   0.4875  0.0038  !             
 -0.5000   0.5000   0.5000  0.0038  ! $M_2$       
 -0.5000   0.5000   0.5000  0.0038  ! $M_2$       
 -0.4887   0.5113   0.5000  0.0038  !             
 -0.4773   0.5227   0.5000  0.0038  !             
 -0.4660   0.5340   0.5000  0.0038  !             
 -0.4547   0.5453   0.5000  0.0038  !             
 -0.4433   0.5567   0.5000  0.0038  !             
 -0.4320   0.5680   0.5000  0.0038  !             
 -0.4207   0.5793   0.5000  0.0038  !             
 -0.4093   0.5907   0.5000  0.0038  !             
 -0.3980   0.6020   0.5000  0.0038  !             
 -0.3867   0.6133   0.5000  0.0038  !             
 -0.3753   0.6247   0.5000  0.0038  ! $D$         
  0.3753   0.3753   0.5000  0.0038  ! $D_2$       
  0.3632   0.3632   0.5000  0.0038  !             
  0.3511   0.3511   0.5000  0.0038  !             
  0.3390   0.3390   0.5000  0.0038  !             
  0.3269   0.3269   0.5000  0.0038  !             
  0.3148   0.3148   0.5000  0.0038  !             
  0.3027   0.3027   0.5000  0.0038  !             
  0.2906   0.2906   0.5000  0.0038  !             
  0.2785   0.2785   0.5000  0.0038  !             
  0.2664   0.2664   0.5000  0.0038  !             
  0.2542   0.2542   0.5000  0.0038  !             
  0.2421   0.2421   0.5000  0.0038  !             
  0.2300   0.2300   0.5000  0.0038  !             
  0.2179   0.2179   0.5000  0.0038  !             
  0.2058   0.2058   0.5000  0.0038  !             
  0.1937   0.1937   0.5000  0.0038  !             
  0.1816   0.1816   0.5000  0.0038  !             
  0.1695   0.1695   0.5000  0.0038  !             
  0.1574   0.1574   0.5000  0.0038  !             
  0.1453   0.1453   0.5000  0.0038  !             
  0.1332   0.1332   0.5000  0.0038  !             
  0.1211   0.1211   0.5000  0.0038  !             
  0.1090   0.1090   0.5000  0.0038  !             
  0.0969   0.0969   0.5000  0.0038  !             
  0.0847   0.0847   0.5000  0.0038  !             
  0.0726   0.0726   0.5000  0.0038  !             
  0.0605   0.0605   0.5000  0.0038  !             
  0.0484   0.0484   0.5000  0.0038  !             
  0.0363   0.0363   0.5000  0.0038  !             
  0.0242   0.0242   0.5000  0.0038  !             
  0.0121   0.0121   0.5000  0.0038  !             
  0.0000   0.0000   0.5000  0.0038  ! $A$         
  0.0000   0.0000   0.5000  0.0038  ! $A$         
  0.0000   0.0000   0.4821  0.0038  !             
  0.0000   0.0000   0.4643  0.0038  !             
  0.0000   0.0000   0.4464  0.0038  !             
  0.0000   0.0000   0.4286  0.0038  !             
  0.0000   0.0000   0.4107  0.0038  !             
  0.0000   0.0000   0.3929  0.0038  !             
  0.0000   0.0000   0.3750  0.0038  !             
  0.0000   0.0000   0.3571  0.0038  !             
  0.0000   0.0000   0.3393  0.0038  !             
  0.0000   0.0000   0.3214  0.0038  !             
  0.0000   0.0000   0.3036  0.0038  !             
  0.0000   0.0000   0.2857  0.0038  !             
  0.0000   0.0000   0.2679  0.0038  !             
  0.0000   0.0000   0.2500  0.0038  !             
  0.0000   0.0000   0.2321  0.0038  !             
  0.0000   0.0000   0.2143  0.0038  !             
  0.0000   0.0000   0.1964  0.0038  !             
  0.0000   0.0000   0.1786  0.0038  !             
  0.0000   0.0000   0.1607  0.0038  !             
  0.0000   0.0000   0.1429  0.0038  !             
  0.0000   0.0000   0.1250  0.0038  !             
  0.0000   0.0000   0.1071  0.0038  !             
  0.0000   0.0000   0.0893  0.0038  !             
  0.0000   0.0000   0.0714  0.0038  !             
  0.0000   0.0000   0.0536  0.0038  !             
  0.0000   0.0000   0.0357  0.0038  !             
  0.0000   0.0000   0.0179  0.0038  !             
  0.0000   0.0000   0.0000  0.0038  ! $\Gamma$    
  0.0000   0.5000   0.5000  0.0038  ! $L_2$       
 -0.0000   0.4861   0.4861  0.0038  !             
 -0.0000   0.4722   0.4722  0.0038  !             
 -0.0000   0.4583   0.4583  0.0038  !             
  0.0000   0.4444   0.4444  0.0038  !             
 -0.0000   0.4306   0.4306  0.0038  !             
  0.0000   0.4167   0.4167  0.0038  !             
  0.0000   0.4028   0.4028  0.0038  !             
  0.0000   0.3889   0.3889  0.0038  !             
 -0.0000   0.3750   0.3750  0.0038  !             
 -0.0000   0.3611   0.3611  0.0038  !             
  0.0000   0.3472   0.3472  0.0038  !             
  0.0000   0.3333   0.3333  0.0038  !             
  0.0000   0.3194   0.3194  0.0038  !             
  0.0000   0.3056   0.3056  0.0038  !             
  0.0000   0.2917   0.2917  0.0038  !             
  0.0000   0.2778   0.2778  0.0038  !             
  0.0000   0.2639   0.2639  0.0038  !             
  0.0000   0.2500   0.2500  0.0038  !             
 -0.0000   0.2361   0.2361  0.0038  !             
  0.0000   0.2222   0.2222  0.0038  !             
 -0.0000   0.2083   0.2083  0.0038  !             
 -0.0000   0.1944   0.1944  0.0038  !             
  0.0000   0.1806   0.1806  0.0038  !             
  0.0000   0.1667   0.1667  0.0038  !             
 -0.0000   0.1528   0.1528  0.0038  !             
  0.0000   0.1389   0.1389  0.0038  !             
  0.0000   0.1250   0.1250  0.0038  !             
  0.0000   0.1111   0.1111  0.0038  !             
 -0.0000   0.0972   0.0972  0.0038  !             
 -0.0000   0.0833   0.0833  0.0038  !             
  0.0000   0.0694   0.0694  0.0038  !             
 -0.0000   0.0556   0.0556  0.0038  !             
 -0.0000   0.0417   0.0417  0.0038  !             
  0.0000   0.0278   0.0278  0.0038  !             
  0.0000   0.0139   0.0139  0.0038  !             
  0.0000   0.0000   0.0000  0.0038  ! $\Gamma$    
  0.0000   0.0000   0.0000  0.0038  ! $\Gamma$    
  0.0000   0.0185  -0.0000  0.0038  !             
  0.0000   0.0370  -0.0000  0.0038  !             
  0.0000   0.0556  -0.0000  0.0038  !             
  0.0000   0.0741  -0.0000  0.0038  !             
 -0.0000   0.0926   0.0000  0.0038  !             
  0.0000   0.1111  -0.0000  0.0038  !             
 -0.0000   0.1296  -0.0000  0.0038  !             
  0.0000   0.1481  -0.0000  0.0038  !             
  0.0000   0.1667  -0.0000  0.0038  !             
 -0.0000   0.1852   0.0000  0.0038  !             
  0.0000   0.2037  -0.0000  0.0038  !             
  0.0000   0.2222  -0.0000  0.0038  !             
 -0.0000   0.2407  -0.0000  0.0038  !             
 -0.0000   0.2593  -0.0000  0.0038  !             
  0.0000   0.2778  -0.0000  0.0038  !             
  0.0000   0.2963  -0.0000  0.0038  !             
 -0.0000   0.3148  -0.0000  0.0038  !             
  0.0000   0.3333  -0.0000  0.0038  !             
  0.0000   0.3519  -0.0000  0.0038  !             
 -0.0000   0.3704   0.0000  0.0038  !             
  0.0000   0.3889  -0.0000  0.0038  !             
  0.0000   0.4074  -0.0000  0.0038  !             
 -0.0000   0.4259  -0.0000  0.0038  !             
  0.0000   0.4444  -0.0000  0.0038  !             
  0.0000   0.4630  -0.0000  0.0038  !             
 -0.0000   0.4815  -0.0000  0.0038  !             
  0.0000   0.5000  -0.0000  0.0038  ! $V_2$       