Automatically generated mesh
380
Reciprocal lattice
  0.0000   0.0000   0.0000  0.0026  ! $\Gamma$    
  0.0128   0.0000   0.0000  0.0026  !             
  0.0256   0.0000   0.0000  0.0026  !             
  0.0385   0.0000   0.0000  0.0026  !             
  0.0513   0.0000   0.0000  0.0026  !             
  0.0641   0.0000   0.0000  0.0026  !             
  0.0769   0.0000   0.0000  0.0026  !             
  0.0897   0.0000   0.0000  0.0026  !             
  0.1026   0.0000   0.0000  0.0026  !             
  0.1154   0.0000   0.0000  0.0026  !             
  0.1282   0.0000   0.0000  0.0026  !             
  0.1410   0.0000   0.0000  0.0026  !             
  0.1538   0.0000   0.0000  0.0026  !             
  0.1667   0.0000   0.0000  0.0026  !             
  0.1795   0.0000   0.0000  0.0026  !             
  0.1923   0.0000   0.0000  0.0026  !             
  0.2051   0.0000   0.0000  0.0026  !             
  0.2179   0.0000   0.0000  0.0026  !             
  0.2308   0.0000   0.0000  0.0026  !             
  0.2436   0.0000   0.0000  0.0026  !             
  0.2564   0.0000   0.0000  0.0026  !             
  0.2692   0.0000   0.0000  0.0026  !             
  0.2821   0.0000   0.0000  0.0026  !             
  0.2949   0.0000   0.0000  0.0026  !             
  0.3077   0.0000   0.0000  0.0026  !             
  0.3205   0.0000   0.0000  0.0026  !             
  0.3333   0.0000   0.0000  0.0026  !             
  0.3462   0.0000   0.0000  0.0026  !             
  0.3590   0.0000   0.0000  0.0026  !             
  0.3718   0.0000   0.0000  0.0026  !             
  0.3846   0.0000   0.0000  0.0026  !             
  0.3974   0.0000   0.0000  0.0026  !             
  0.4103   0.0000   0.0000  0.0026  !             
  0.4231   0.0000   0.0000  0.0026  !             
  0.4359   0.0000   0.0000  0.0026  !             
  0.4487   0.0000   0.0000  0.0026  !             
  0.4615   0.0000   0.0000  0.0026  !             
  0.4744   0.0000   0.0000  0.0026  !             
  0.4872   0.0000   0.0000  0.0026  !             
  0.5000   0.0000   0.0000  0.0026  ! $X$         
  0.5000   0.0000   0.0000  0.0026  ! $X$         
  0.5000   0.0128   0.0000  0.0026  !             
  0.5000   0.0256   0.0000  0.0026  !             
  0.5000   0.0385   0.0000  0.0026  !             
  0.5000   0.0513   0.0000  0.0026  !             
  0.5000   0.0641   0.0000  0.0026  !             
  0.5000   0.0769   0.0000  0.0026  !             
  0.5000   0.0897   0.0000  0.0026  !             
  0.5000   0.1026   0.0000  0.0026  !             
  0.5000   0.1154   0.0000  0.0026  !             
  0.5000   0.1282   0.0000  0.0026  !             
  0.5000   0.1410   0.0000  0.0026  !             
  0.5000   0.1538   0.0000  0.0026  !             
  0.5000   0.1667   0.0000  0.0026  !             
  0.5000   0.1795   0.0000  0.0026  !             
  0.5000   0.1923   0.0000  0.0026  !             
  0.5000   0.2051   0.0000  0.0026  !             
  0.5000   0.2179   0.0000  0.0026  !             
  0.5000   0.2308   0.0000  0.0026  !             
  0.5000   0.2436   0.0000  0.0026  !             
  0.5000   0.2564   0.0000  0.0026  !             
  0.5000   0.2692   0.0000  0.0026  !             
  0.5000   0.2821   0.0000  0.0026  !             
  0.5000   0.2949   0.0000  0.0026  !             
  0.5000   0.3077   0.0000  0.0026  !             
  0.5000   0.3205   0.0000  0.0026  !             
  0.5000   0.3333   0.0000  0.0026  !             
  0.5000   0.3462   0.0000  0.0026  !             
  0.5000   0.3590   0.0000  0.0026  !             
  0.5000   0.3718   0.0000  0.0026  !             
  0.5000   0.3846   0.0000  0.0026  !             
  0.5000   0.3974   0.0000  0.0026  !             
  0.5000   0.4103   0.0000  0.0026  !             
  0.5000   0.4231   0.0000  0.0026  !             
  0.5000   0.4359   0.0000  0.0026  !             
  0.5000   0.4487   0.0000  0.0026  !             
  0.5000   0.4615   0.0000  0.0026  !             
  0.5000   0.4744   0.0000  0.0026  !             
  0.5000   0.4872   0.0000  0.0026  !             
  0.5000   0.5000   0.0000  0.0026  ! $S$         
  0.5000   0.5000   0.0000  0.0026  ! $S$         
  0.4872   0.5000   0.0000  0.0026  !             
  0.4744   0.5000   0.0000  0.0026  !             
  0.4615   0.5000   0.0000  0.0026  !             
  0.4487   0.5000   0.0000  0.0026  !             
  0.4359   0.5000   0.0000  0.0026  !             
  0.4231   0.5000   0.0000  0.0026  !             
  0.4103   0.5000   0.0000  0.0026  !             
  0.3974   0.5000   0.0000  0.0026  !             
  0.3846   0.5000   0.0000  0.0026  !             
  0.3718   0.5000   0.0000  0.0026  !             
  0.3590   0.5000   0.0000  0.0026  !             
  0.3462   0.5000   0.0000  0.0026  !             
  0.3333   0.5000   0.0000  0.0026  !             
  0.3205   0.5000   0.0000  0.0026  !             
  0.3077   0.5000   0.0000  0.0026  !             
  0.2949   0.5000   0.0000  0.0026  !             
  0.2821   0.5000   0.0000  0.0026  !             
  0.2692   0.5000   0.0000  0.0026  !             
  0.2564   0.5000   0.0000  0.0026  !             
  0.2436   0.5000   0.0000  0.0026  !             
  0.2308   0.5000   0.0000  0.0026  !             
  0.2179   0.5000   0.0000  0.0026  !             
  0.2051   0.5000   0.0000  0.0026  !             
  0.1923   0.5000   0.0000  0.0026  !             
  0.1795   0.5000   0.0000  0.0026  !             
  0.1667   0.5000   0.0000  0.0026  !             
  0.1538   0.5000   0.0000  0.0026  !             
  0.1410   0.5000   0.0000  0.0026  !             
  0.1282   0.5000   0.0000  0.0026  !             
  0.1154   0.5000   0.0000  0.0026  !             
  0.1026   0.5000   0.0000  0.0026  !             
  0.0897   0.5000   0.0000  0.0026  !             
  0.0769   0.5000   0.0000  0.0026  !             
  0.0641   0.5000   0.0000  0.0026  !             
  0.0513   0.5000   0.0000  0.0026  !             
  0.0385   0.5000   0.0000  0.0026  !             
  0.0256   0.5000   0.0000  0.0026  !             
  0.0128   0.5000   0.0000  0.0026  !             
  0.0000   0.5000   0.0000  0.0026  ! $Y$         
  0.0000   0.5000   0.0000  0.0026  ! $Y$         
  0.0000   0.4872   0.0000  0.0026  !             
  0.0000   0.4744   0.0000  0.0026  !             
  0.0000   0.4615   0.0000  0.0026  !             
  0.0000   0.4487   0.0000  0.0026  !             
  0.0000   0.4359   0.0000  0.0026  !             
  0.0000   0.4231   0.0000  0.0026  !             
  0.0000   0.4103   0.0000  0.0026  !             
  0.0000   0.3974   0.0000  0.0026  !             
  0.0000   0.3846   0.0000  0.0026  !             
  0.0000   0.3718   0.0000  0.0026  !             
  0.0000   0.3590   0.0000  0.0026  !             
  0.0000   0.3462   0.0000  0.0026  !             
  0.0000   0.3333   0.0000  0.0026  !             
  0.0000   0.3205   0.0000  0.0026  !             
  0.0000   0.3077   0.0000  0.0026  !             
  0.0000   0.2949   0.0000  0.0026  !             
  0.0000   0.2821   0.0000  0.0026  !             
  0.0000   0.2692   0.0000  0.0026  !             
  0.0000   0.2564   0.0000  0.0026  !             
  0.0000   0.2436   0.0000  0.0026  !             
  0.0000   0.2308   0.0000  0.0026  !             
  0.0000   0.2179   0.0000  0.0026  !             
  0.0000   0.2051   0.0000  0.0026  !             
  0.0000   0.1923   0.0000  0.0026  !             
  0.0000   0.1795   0.0000  0.0026  !             
  0.0000   0.1667   0.0000  0.0026  !             
  0.0000   0.1538   0.0000  0.0026  !             
  0.0000   0.1410   0.0000  0.0026  !             
  0.0000   0.1282   0.0000  0.0026  !             
  0.0000   0.1154   0.0000  0.0026  !             
  0.0000   0.1026   0.0000  0.0026  !             
  0.0000   0.0897   0.0000  0.0026  !             
  0.0000   0.0769   0.0000  0.0026  !             
  0.0000   0.0641   0.0000  0.0026  !             
  0.0000   0.0513   0.0000  0.0026  !             
  0.0000   0.0385   0.0000  0.0026  !             
  0.0000   0.0256   0.0000  0.0026  !             
  0.0000   0.0128   0.0000  0.0026  !             
  0.0000   0.0000   0.0000  0.0026  ! $\Gamma$    
  0.0000   0.0000   0.0000  0.0026  ! $\Gamma$    
  0.0000   0.0000   0.0357  0.0026  !             
  0.0000   0.0000   0.0714  0.0026  !             
  0.0000   0.0000   0.1071  0.0026  !             
  0.0000   0.0000   0.1429  0.0026  !             
  0.0000   0.0000   0.1786  0.0026  !             
  0.0000   0.0000   0.2143  0.0026  !             
  0.0000   0.0000   0.2500  0.0026  !             
  0.0000   0.0000   0.2857  0.0026  !             
  0.0000   0.0000   0.3214  0.0026  !             
  0.0000   0.0000   0.3571  0.0026  !             
  0.0000   0.0000   0.3929  0.0026  !             
  0.0000   0.0000   0.4286  0.0026  !             
  0.0000   0.0000   0.4643  0.0026  !             
  0.0000   0.0000   0.5000  0.0026  ! $Z$         
  0.0000   0.0000   0.5000  0.0026  ! $Z$         
  0.0128   0.0000   0.5000  0.0026  !             
  0.0256   0.0000   0.5000  0.0026  !             
  0.0385   0.0000   0.5000  0.0026  !             
  0.0513   0.0000   0.5000  0.0026  !             
  0.0641   0.0000   0.5000  0.0026  !             
  0.0769   0.0000   0.5000  0.0026  !             
  0.0897   0.0000   0.5000  0.0026  !             
  0.1026   0.0000   0.5000  0.0026  !             
  0.1154   0.0000   0.5000  0.0026  !             
  0.1282   0.0000   0.5000  0.0026  !             
  0.1410   0.0000   0.5000  0.0026  !             
  0.1538   0.0000   0.5000  0.0026  !             
  0.1667   0.0000   0.5000  0.0026  !             
  0.1795   0.0000   0.5000  0.0026  !             
  0.1923   0.0000   0.5000  0.0026  !             
  0.2051   0.0000   0.5000  0.0026  !             
  0.2179   0.0000   0.5000  0.0026  !             
  0.2308   0.0000   0.5000  0.0026  !             
  0.2436   0.0000   0.5000  0.0026  !             
  0.2564   0.0000   0.5000  0.0026  !             
  0.2692   0.0000   0.5000  0.0026  !             
  0.2821   0.0000   0.5000  0.0026  !             
  0.2949   0.0000   0.5000  0.0026  !             
  0.3077   0.0000   0.5000  0.0026  !             
  0.3205   0.0000   0.5000  0.0026  !             
  0.3333   0.0000   0.5000  0.0026  !             
  0.3462   0.0000   0.5000  0.0026  !             
  0.3590   0.0000   0.5000  0.0026  !             
  0.3718   0.0000   0.5000  0.0026  !             
  0.3846   0.0000   0.5000  0.0026  !             
  0.3974   0.0000   0.5000  0.0026  !             
  0.4103   0.0000   0.5000  0.0026  !             
  0.4231   0.0000   0.5000  0.0026  !             
  0.4359   0.0000   0.5000  0.0026  !             
  0.4487   0.0000   0.5000  0.0026  !             
  0.4615   0.0000   0.5000  0.0026  !             
  0.4744   0.0000   0.5000  0.0026  !             
  0.4872   0.0000   0.5000  0.0026  !             
  0.5000   0.0000   0.5000  0.0026  ! $U$         
  0.5000   0.0000   0.5000  0.0026  ! $U$         
  0.5000   0.0128   0.5000  0.0026  !             
  0.5000   0.0256   0.5000  0.0026  !             
  0.5000   0.0385   0.5000  0.0026  !             
  0.5000   0.0513   0.5000  0.0026  !             
  0.5000   0.0641   0.5000  0.0026  !             
  0.5000   0.0769   0.5000  0.0026  !             
  0.5000   0.0897   0.5000  0.0026  !             
  0.5000   0.1026   0.5000  0.0026  !             
  0.5000   0.1154   0.5000  0.0026  !             
  0.5000   0.1282   0.5000  0.0026  !             
  0.5000   0.1410   0.5000  0.0026  !             
  0.5000   0.1538   0.5000  0.0026  !             
  0.5000   0.1667   0.5000  0.0026  !             
  0.5000   0.1795   0.5000  0.0026  !             
  0.5000   0.1923   0.5000  0.0026  !             
  0.5000   0.2051   0.5000  0.0026  !             
  0.5000   0.2179   0.5000  0.0026  !             
  0.5000   0.2308   0.5000  0.0026  !             
  0.5000   0.2436   0.5000  0.0026  !             
  0.5000   0.2564   0.5000  0.0026  !             
  0.5000   0.2692   0.5000  0.0026  !             
  0.5000   0.2821   0.5000  0.0026  !             
  0.5000   0.2949   0.5000  0.0026  !             
  0.5000   0.3077   0.5000  0.0026  !             
  0.5000   0.3205   0.5000  0.0026  !             
  0.5000   0.3333   0.5000  0.0026  !             
  0.5000   0.3462   0.5000  0.0026  !             
  0.5000   0.3590   0.5000  0.0026  !             
  0.5000   0.3718   0.5000  0.0026  !             
  0.5000   0.3846   0.5000  0.0026  !             
  0.5000   0.3974   0.5000  0.0026  !             
  0.5000   0.4103   0.5000  0.0026  !             
  0.5000   0.4231   0.5000  0.0026  !             
  0.5000   0.4359   0.5000  0.0026  !             
  0.5000   0.4487   0.5000  0.0026  !             
  0.5000   0.4615   0.5000  0.0026  !             
  0.5000   0.4744   0.5000  0.0026  !             
  0.5000   0.4872   0.5000  0.0026  !             
  0.5000   0.5000   0.5000  0.0026  ! $R$         
  0.5000   0.5000   0.5000  0.0026  ! $R$         
  0.4872   0.5000   0.5000  0.0026  !             
  0.4744   0.5000   0.5000  0.0026  !             
  0.4615   0.5000   0.5000  0.0026  !             
  0.4487   0.5000   0.5000  0.0026  !             
  0.4359   0.5000   0.5000  0.0026  !             
  0.4231   0.5000   0.5000  0.0026  !             
  0.4103   0.5000   0.5000  0.0026  !             
  0.3974   0.5000   0.5000  0.0026  !             
  0.3846   0.5000   0.5000  0.0026  !             
  0.3718   0.5000   0.5000  0.0026  !             
  0.3590   0.5000   0.5000  0.0026  !             
  0.3462   0.5000   0.5000  0.0026  !             
  0.3333   0.5000   0.5000  0.0026  !             
  0.3205   0.5000   0.5000  0.0026  !             
  0.3077   0.5000   0.5000  0.0026  !             
  0.2949   0.5000   0.5000  0.0026  !             
  0.2821   0.5000   0.5000  0.0026  !             
  0.2692   0.5000   0.5000  0.0026  !             
  0.2564   0.5000   0.5000  0.0026  !             
  0.2436   0.5000   0.5000  0.0026  !             
  0.2308   0.5000   0.5000  0.0026  !             
  0.2179   0.5000   0.5000  0.0026  !             
  0.2051   0.5000   0.5000  0.0026  !             
  0.1923   0.5000   0.5000  0.0026  !             
  0.1795   0.5000   0.5000  0.0026  !             
  0.1667   0.5000   0.5000  0.0026  !             
  0.1538   0.5000   0.5000  0.0026  !             
  0.1410   0.5000   0.5000  0.0026  !             
  0.1282   0.5000   0.5000  0.0026  !             
  0.1154   0.5000   0.5000  0.0026  !             
  0.1026   0.5000   0.5000  0.0026  !             
  0.0897   0.5000   0.5000  0.0026  !             
  0.0769   0.5000   0.5000  0.0026  !             
  0.0641   0.5000   0.5000  0.0026  !             
  0.0513   0.5000   0.5000  0.0026  !             
  0.0385   0.5000   0.5000  0.0026  !             
  0.0256   0.5000   0.5000  0.0026  !             
  0.0128   0.5000   0.5000  0.0026  !             
  0.0000   0.5000   0.5000  0.0026  ! $T$         
  0.0000   0.5000   0.5000  0.0026  ! $T$         
  0.0000   0.4872   0.5000  0.0026  !             
  0.0000   0.4744   0.5000  0.0026  !             
  0.0000   0.4615   0.5000  0.0026  !             
  0.0000   0.4487   0.5000  0.0026  !             
  0.0000   0.4359   0.5000  0.0026  !             
  0.0000   0.4231   0.5000  0.0026  !             
  0.0000   0.4103   0.5000  0.0026  !             
  0.0000   0.3974   0.5000  0.0026  !             
  0.0000   0.3846   0.5000  0.0026  !             
  0.0000   0.3718   0.5000  0.0026  !             
  0.0000   0.3590   0.5000  0.0026  !             
  0.0000   0.3462   0.5000  0.0026  !             
  0.0000   0.3333   0.5000  0.0026  !             
  0.0000   0.3205   0.5000  0.0026  !             
  0.0000   0.3077   0.5000  0.0026  !             
  0.0000   0.2949   0.5000  0.0026  !             
  0.0000   0.2821   0.5000  0.0026  !             
  0.0000   0.2692   0.5000  0.0026  !             
  0.0000   0.2564   0.5000  0.0026  !             
  0.0000   0.2436   0.5000  0.0026  !             
  0.0000   0.2308   0.5000  0.0026  !             
  0.0000   0.2179   0.5000  0.0026  !             
  0.0000   0.2051   0.5000  0.0026  !             
  0.0000   0.1923   0.5000  0.0026  !             
  0.0000   0.1795   0.5000  0.0026  !             
  0.0000   0.1667   0.5000  0.0026  !             
  0.0000   0.1538   0.5000  0.0026  !             
  0.0000   0.1410   0.5000  0.0026  !             
  0.0000   0.1282   0.5000  0.0026  !             
  0.0000   0.1154   0.5000  0.0026  !             
  0.0000   0.1026   0.5000  0.0026  !             
  0.0000   0.0897   0.5000  0.0026  !             
  0.0000   0.0769   0.5000  0.0026  !             
  0.0000   0.0641   0.5000  0.0026  !             
  0.0000   0.0513   0.5000  0.0026  !             
  0.0000   0.0385   0.5000  0.0026  !             
  0.0000   0.0256   0.5000  0.0026  !             
  0.0000   0.0128   0.5000  0.0026  !             
  0.0000   0.0000   0.5000  0.0026  ! $Z$         
  0.5000   0.0000   0.0000  0.0026  ! $X$         
  0.5000   0.0000   0.0357  0.0026  !             
  0.5000   0.0000   0.0714  0.0026  !             
  0.5000   0.0000   0.1071  0.0026  !             
  0.5000   0.0000   0.1429  0.0026  !             
  0.5000   0.0000   0.1786  0.0026  !             
  0.5000   0.0000   0.2143  0.0026  !             
  0.5000   0.0000   0.2500  0.0026  !             
  0.5000   0.0000   0.2857  0.0026  !             
  0.5000   0.0000   0.3214  0.0026  !             
  0.5000   0.0000   0.3571  0.0026  !             
  0.5000   0.0000   0.3929  0.0026  !             
  0.5000   0.0000   0.4286  0.0026  !             
  0.5000   0.0000   0.4643  0.0026  !             
  0.5000   0.0000   0.5000  0.0026  ! $U$         
  0.0000   0.5000   0.0000  0.0026  ! $Y$         
  0.0000   0.5000   0.0357  0.0026  !             
  0.0000   0.5000   0.0714  0.0026  !             
  0.0000   0.5000   0.1071  0.0026  !             
  0.0000   0.5000   0.1429  0.0026  !             
  0.0000   0.5000   0.1786  0.0026  !             
  0.0000   0.5000   0.2143  0.0026  !             
  0.0000   0.5000   0.2500  0.0026  !             
  0.0000   0.5000   0.2857  0.0026  !             
  0.0000   0.5000   0.3214  0.0026  !             
  0.0000   0.5000   0.3571  0.0026  !             
  0.0000   0.5000   0.3929  0.0026  !             
  0.0000   0.5000   0.4286  0.0026  !             
  0.0000   0.5000   0.4643  0.0026  !             
  0.0000   0.5000   0.5000  0.0026  ! $T$         
  0.5000   0.5000   0.0000  0.0026  ! $S$         
  0.5000   0.5000   0.0357  0.0026  !             
  0.5000   0.5000   0.0714  0.0026  !             
  0.5000   0.5000   0.1071  0.0026  !             
  0.5000   0.5000   0.1429  0.0026  !             
  0.5000   0.5000   0.1786  0.0026  !             
  0.5000   0.5000   0.2143  0.0026  !             
  0.5000   0.5000   0.2500  0.0026  !             
  0.5000   0.5000   0.2857  0.0026  !             
  0.5000   0.5000   0.3214  0.0026  !             
  0.5000   0.5000   0.3571  0.0026  !             
  0.5000   0.5000   0.3929  0.0026  !             
  0.5000   0.5000   0.4286  0.0026  !             
  0.5000   0.5000   0.4643  0.0026  !             
  0.5000   0.5000   0.5000  0.0026  ! $R$         