Automatically generated mesh
245
Reciprocal lattice
  0.0000   0.0000   0.0000  0.0041  ! $\Gamma$    
  0.0200   0.0000   0.0000  0.0041  !             
  0.0400   0.0000   0.0000  0.0041  !             
  0.0600   0.0000   0.0000  0.0041  !             
  0.0800   0.0000   0.0000  0.0041  !             
  0.1000   0.0000   0.0000  0.0041  !             
  0.1200   0.0000   0.0000  0.0041  !             
  0.1400   0.0000   0.0000  0.0041  !             
  0.1600   0.0000   0.0000  0.0041  !             
  0.1800   0.0000   0.0000  0.0041  !             
  0.2000   0.0000   0.0000  0.0041  !             
  0.2200   0.0000   0.0000  0.0041  !             
  0.2400   0.0000   0.0000  0.0041  !             
  0.2600   0.0000   0.0000  0.0041  !             
  0.2800   0.0000   0.0000  0.0041  !             
  0.3000   0.0000   0.0000  0.0041  !             
  0.3200   0.0000   0.0000  0.0041  !             
  0.3400   0.0000   0.0000  0.0041  !             
  0.3600   0.0000   0.0000  0.0041  !             
  0.3800   0.0000   0.0000  0.0041  !             
  0.4000   0.0000   0.0000  0.0041  !             
  0.4200   0.0000   0.0000  0.0041  !             
  0.4400   0.0000   0.0000  0.0041  !             
  0.4600   0.0000   0.0000  0.0041  !             
  0.4800   0.0000   0.0000  0.0041  !             
  0.5000   0.0000   0.0000  0.0041  ! $X$         
  0.0000   0.5000   0.0000  0.0041  ! $Y$         
 -0.0000   0.4815   0.0000  0.0041  !             
 -0.0000   0.4630   0.0000  0.0041  !             
 -0.0000   0.4444   0.0000  0.0041  !             
 -0.0000   0.4259   0.0000  0.0041  !             
 -0.0000   0.4074   0.0000  0.0041  !             
 -0.0000   0.3889   0.0000  0.0041  !             
 -0.0000   0.3704   0.0000  0.0041  !             
 -0.0000   0.3519   0.0000  0.0041  !             
  0.0000   0.3333   0.0000  0.0041  !             
 -0.0000   0.3148   0.0000  0.0041  !             
 -0.0000   0.2963   0.0000  0.0041  !             
 -0.0000   0.2778   0.0000  0.0041  !             
  0.0000   0.2593   0.0000  0.0041  !             
 -0.0000   0.2407   0.0000  0.0041  !             
  0.0000   0.2222   0.0000  0.0041  !             
  0.0000   0.2037   0.0000  0.0041  !             
  0.0000   0.1852   0.0000  0.0041  !             
 -0.0000   0.1667   0.0000  0.0041  !             
 -0.0000   0.1481   0.0000  0.0041  !             
 -0.0000   0.1296   0.0000  0.0041  !             
  0.0000   0.1111   0.0000  0.0041  !             
 -0.0000   0.0926   0.0000  0.0041  !             
  0.0000   0.0741   0.0000  0.0041  !             
 -0.0000   0.0556   0.0000  0.0041  !             
  0.0000   0.0370   0.0000  0.0041  !             
  0.0000   0.0185   0.0000  0.0041  !             
  0.0000   0.0000   0.0000  0.0041  ! $\Gamma$    
  0.0000   0.0000   0.0000  0.0041  ! $\Gamma$    
  0.0000   0.0000   0.0172  0.0041  !             
  0.0000   0.0000   0.0345  0.0041  !             
  0.0000  -0.0000   0.0517  0.0041  !             
  0.0000   0.0000   0.0690  0.0041  !             
  0.0000   0.0000   0.0862  0.0041  !             
  0.0000  -0.0000   0.1034  0.0041  !             
  0.0000  -0.0000   0.1207  0.0041  !             
  0.0000   0.0000   0.1379  0.0041  !             
  0.0000   0.0000   0.1552  0.0041  !             
  0.0000   0.0000   0.1724  0.0041  !             
  0.0000   0.0000   0.1897  0.0041  !             
  0.0000  -0.0000   0.2069  0.0041  !             
  0.0000  -0.0000   0.2241  0.0041  !             
  0.0000  -0.0000   0.2414  0.0041  !             
  0.0000  -0.0000   0.2586  0.0041  !             
  0.0000   0.0000   0.2759  0.0041  !             
 -0.0000   0.0000   0.2931  0.0041  !             
  0.0000   0.0000   0.3103  0.0041  !             
  0.0000   0.0000   0.3276  0.0041  !             
  0.0000   0.0000   0.3448  0.0041  !             
  0.0000   0.0000   0.3621  0.0041  !             
  0.0000   0.0000   0.3793  0.0041  !             
  0.0000  -0.0000   0.3966  0.0041  !             
  0.0000  -0.0000   0.4138  0.0041  !             
  0.0000  -0.0000   0.4310  0.0041  !             
  0.0000  -0.0000   0.4483  0.0041  !             
 -0.0000  -0.0000   0.4655  0.0041  !             
  0.0000  -0.0000   0.4828  0.0041  !             
  0.0000  -0.0000   0.5000  0.0041  ! $Z$         
 -0.5000  -0.5000   0.5000  0.0041  ! $R_2$       
 -0.4889  -0.4889   0.4889  0.0041  !             
 -0.4778  -0.4778   0.4778  0.0041  !             
 -0.4667  -0.4667   0.4667  0.0041  !             
 -0.4556  -0.4556   0.4556  0.0041  !             
 -0.4444  -0.4444   0.4444  0.0041  !             
 -0.4333  -0.4333   0.4333  0.0041  !             
 -0.4222  -0.4222   0.4222  0.0041  !             
 -0.4111  -0.4111   0.4111  0.0041  !             
 -0.4000  -0.4000   0.4000  0.0041  !             
 -0.3889  -0.3889   0.3889  0.0041  !             
 -0.3778  -0.3778   0.3778  0.0041  !             
 -0.3667  -0.3667   0.3667  0.0041  !             
 -0.3556  -0.3556   0.3556  0.0041  !             
 -0.3444  -0.3444   0.3444  0.0041  !             
 -0.3333  -0.3333   0.3333  0.0041  !             
 -0.3222  -0.3222   0.3222  0.0041  !             
 -0.3111  -0.3111   0.3111  0.0041  !             
 -0.3000  -0.3000   0.3000  0.0041  !             
 -0.2889  -0.2889   0.2889  0.0041  !             
 -0.2778  -0.2778   0.2778  0.0041  !             
 -0.2667  -0.2667   0.2667  0.0041  !             
 -0.2556  -0.2556   0.2556  0.0041  !             
 -0.2444  -0.2444   0.2444  0.0041  !             
 -0.2333  -0.2333   0.2333  0.0041  !             
 -0.2222  -0.2222   0.2222  0.0041  !             
 -0.2111  -0.2111   0.2111  0.0041  !             
 -0.2000  -0.2000   0.2000  0.0041  !             
 -0.1889  -0.1889   0.1889  0.0041  !             
 -0.1778  -0.1778   0.1778  0.0041  !             
 -0.1667  -0.1667   0.1667  0.0041  !             
 -0.1556  -0.1556   0.1556  0.0041  !             
 -0.1444  -0.1444   0.1444  0.0041  !             
 -0.1333  -0.1333   0.1333  0.0041  !             
 -0.1222  -0.1222   0.1222  0.0041  !             
 -0.1111  -0.1111   0.1111  0.0041  !             
 -0.1000  -0.1000   0.1000  0.0041  !             
 -0.0889  -0.0889   0.0889  0.0041  !             
 -0.0778  -0.0778   0.0778  0.0041  !             
 -0.0667  -0.0667   0.0667  0.0041  !             
 -0.0556  -0.0556   0.0556  0.0041  !             
 -0.0444  -0.0444   0.0444  0.0041  !             
 -0.0333  -0.0333   0.0333  0.0041  !             
 -0.0222  -0.0222   0.0222  0.0041  !             
 -0.0111  -0.0111   0.0111  0.0041  !             
  0.0000   0.0000   0.0000  0.0041  ! $\Gamma$    
  0.0000   0.0000   0.0000  0.0041  ! $\Gamma$    
  0.0000  -0.0132   0.0132  0.0041  !             
  0.0000  -0.0263   0.0263  0.0041  !             
  0.0000  -0.0395   0.0395  0.0041  !             
  0.0000  -0.0526   0.0526  0.0041  !             
 -0.0000  -0.0658   0.0658  0.0041  !             
  0.0000  -0.0789   0.0789  0.0041  !             
  0.0000  -0.0921   0.0921  0.0041  !             
  0.0000  -0.1053   0.1053  0.0041  !             
 -0.0000  -0.1184   0.1184  0.0041  !             
 -0.0000  -0.1316   0.1316  0.0041  !             
  0.0000  -0.1447   0.1447  0.0041  !             
  0.0000  -0.1579   0.1579  0.0041  !             
  0.0000  -0.1711   0.1711  0.0041  !             
  0.0000  -0.1842   0.1842  0.0041  !             
  0.0000  -0.1974   0.1974  0.0041  !             
  0.0000  -0.2105   0.2105  0.0041  !             
  0.0000  -0.2237   0.2237  0.0041  !             
 -0.0000  -0.2368   0.2368  0.0041  !             
  0.0000  -0.2500   0.2500  0.0041  !             
 -0.0000  -0.2632   0.2632  0.0041  !             
  0.0000  -0.2763   0.2763  0.0041  !             
  0.0000  -0.2895   0.2895  0.0041  !             
  0.0000  -0.3026   0.3026  0.0041  !             
  0.0000  -0.3158   0.3158  0.0041  !             
  0.0000  -0.3289   0.3289  0.0041  !             
  0.0000  -0.3421   0.3421  0.0041  !             
 -0.0000  -0.3553   0.3553  0.0041  !             
  0.0000  -0.3684   0.3684  0.0041  !             
  0.0000  -0.3816   0.3816  0.0041  !             
  0.0000  -0.3947   0.3947  0.0041  !             
  0.0000  -0.4079   0.4079  0.0041  !             
  0.0000  -0.4211   0.4211  0.0041  !             
 -0.0000  -0.4342   0.4342  0.0041  !             
  0.0000  -0.4474   0.4474  0.0041  !             
  0.0000  -0.4605   0.4605  0.0041  !             
 -0.0000  -0.4737   0.4737  0.0041  !             
 -0.0000  -0.4868   0.4868  0.0041  !             
  0.0000  -0.5000   0.5000  0.0041  ! $T_2$       
 -0.5000  -0.0000   0.5000  0.0041  ! $U_2$       
 -0.4865  -0.0000   0.4865  0.0041  !             
 -0.4730   0.0000   0.4730  0.0041  !             
 -0.4595   0.0000   0.4595  0.0041  !             
 -0.4459   0.0000   0.4459  0.0041  !             
 -0.4324  -0.0000   0.4324  0.0041  !             
 -0.4189  -0.0000   0.4189  0.0041  !             
 -0.4054   0.0000   0.4054  0.0041  !             
 -0.3919   0.0000   0.3919  0.0041  !             
 -0.3784  -0.0000   0.3784  0.0041  !             
 -0.3649   0.0000   0.3649  0.0041  !             
 -0.3514  -0.0000   0.3514  0.0041  !             
 -0.3378  -0.0000   0.3378  0.0041  !             
 -0.3243   0.0000   0.3243  0.0041  !             
 -0.3108  -0.0000   0.3108  0.0041  !             
 -0.2973  -0.0000   0.2973  0.0041  !             
 -0.2838   0.0000   0.2838  0.0041  !             
 -0.2703   0.0000   0.2703  0.0041  !             
 -0.2568   0.0000   0.2568  0.0041  !             
 -0.2432  -0.0000   0.2432  0.0041  !             
 -0.2297   0.0000   0.2297  0.0041  !             
 -0.2162  -0.0000   0.2162  0.0041  !             
 -0.2027   0.0000   0.2027  0.0041  !             
 -0.1892  -0.0000   0.1892  0.0041  !             
 -0.1757   0.0000   0.1757  0.0041  !             
 -0.1622   0.0000   0.1622  0.0041  !             
 -0.1486   0.0000   0.1486  0.0041  !             
 -0.1351   0.0000   0.1351  0.0041  !             
 -0.1216  -0.0000   0.1216  0.0041  !             
 -0.1081  -0.0000   0.1081  0.0041  !             
 -0.0946   0.0000   0.0946  0.0041  !             
 -0.0811   0.0000   0.0811  0.0041  !             
 -0.0676   0.0000   0.0676  0.0041  !             
 -0.0541  -0.0000   0.0541  0.0041  !             
 -0.0405   0.0000   0.0405  0.0041  !             
 -0.0270  -0.0000   0.0270  0.0041  !             
 -0.0135   0.0000   0.0135  0.0041  !             
  0.0000   0.0000   0.0000  0.0041  ! $\Gamma$    
  0.0000   0.0000   0.0000  0.0041  ! $\Gamma$    
  0.0135  -0.0135   0.0000  0.0041  !             
  0.0270  -0.0270   0.0000  0.0041  !             
  0.0405  -0.0405   0.0000  0.0041  !             
  0.0541  -0.0541   0.0000  0.0041  !             
  0.0676  -0.0676   0.0000  0.0041  !             
  0.0811  -0.0811   0.0000  0.0041  !             
  0.0946  -0.0946   0.0000  0.0041  !             
  0.1081  -0.1081   0.0000  0.0041  !             
  0.1216  -0.1216   0.0000  0.0041  !             
  0.1351  -0.1351   0.0000  0.0041  !             
  0.1486  -0.1486   0.0000  0.0041  !             
  0.1622  -0.1622   0.0000  0.0041  !             
  0.1757  -0.1757   0.0000  0.0041  !             
  0.1892  -0.1892   0.0000  0.0041  !             
  0.2027  -0.2027   0.0000  0.0041  !             
  0.2162  -0.2162   0.0000  0.0041  !             
  0.2297  -0.2297   0.0000  0.0041  !             
  0.2432  -0.2432   0.0000  0.0041  !             
  0.2568  -0.2568   0.0000  0.0041  !             
  0.2703  -0.2703   0.0000  0.0041  !             
  0.2838  -0.2838   0.0000  0.0041  !             
  0.2973  -0.2973   0.0000  0.0041  !             
  0.3108  -0.3108   0.0000  0.0041  !             
  0.3243  -0.3243   0.0000  0.0041  !             
  0.3378  -0.3378   0.0000  0.0041  !             
  0.3514  -0.3514   0.0000  0.0041  !             
  0.3649  -0.3649   0.0000  0.0041  !             
  0.3784  -0.3784   0.0000  0.0041  !             
  0.3919  -0.3919   0.0000  0.0041  !             
  0.4054  -0.4054   0.0000  0.0041  !             
  0.4189  -0.4189   0.0000  0.0041  !             
  0.4324  -0.4324   0.0000  0.0041  !             
  0.4459  -0.4459   0.0000  0.0041  !             
  0.4595  -0.4595   0.0000  0.0041  !             
  0.4730  -0.4730   0.0000  0.0041  !             
  0.4865  -0.4865   0.0000  0.0041  !             
  0.5000  -0.5000   0.0000  0.0041  ! $V_2$       