Automatically generated mesh
187
Reciprocal lattice
  0.0000   0.0000   0.0000  0.0053  ! $\Gamma$    
  0.0238   0.0000  -0.0000  0.0053  !             
  0.0476   0.0000  -0.0000  0.0053  !             
  0.0714   0.0000  -0.0000  0.0053  !             
  0.0952   0.0000  -0.0000  0.0053  !             
  0.1190   0.0000   0.0000  0.0053  !             
  0.1429   0.0000  -0.0000  0.0053  !             
  0.1667   0.0000  -0.0000  0.0053  !             
  0.1905   0.0000  -0.0000  0.0053  !             
  0.2143   0.0000   0.0000  0.0053  !             
  0.2381   0.0000   0.0000  0.0053  !             
  0.2619   0.0000  -0.0000  0.0053  !             
  0.2857   0.0000  -0.0000  0.0053  !             
  0.3095   0.0000  -0.0000  0.0053  !             
  0.3333   0.0000  -0.0000  0.0053  !             
  0.3571   0.0000   0.0000  0.0053  !             
  0.3810   0.0000  -0.0000  0.0053  !             
  0.4048   0.0000   0.0000  0.0053  !             
  0.4286   0.0000   0.0000  0.0053  !             
  0.4524   0.0000  -0.0000  0.0053  !             
  0.4762   0.0000   0.0000  0.0053  !             
  0.5000   0.0000   0.0000  0.0053  ! $X$         
  0.0000   0.5000   0.0000  0.0053  ! $Y$         
 -0.0000   0.4815  -0.0000  0.0053  !             
  0.0000   0.4630   0.0000  0.0053  !             
 -0.0000   0.4444  -0.0000  0.0053  !             
  0.0000   0.4259   0.0000  0.0053  !             
  0.0000   0.4074  -0.0000  0.0053  !             
 -0.0000   0.3889   0.0000  0.0053  !             
 -0.0000   0.3704   0.0000  0.0053  !             
 -0.0000   0.3519  -0.0000  0.0053  !             
 -0.0000   0.3333   0.0000  0.0053  !             
 -0.0000   0.3148  -0.0000  0.0053  !             
  0.0000   0.2963  -0.0000  0.0053  !             
 -0.0000   0.2778  -0.0000  0.0053  !             
  0.0000   0.2593   0.0000  0.0053  !             
  0.0000   0.2407   0.0000  0.0053  !             
  0.0000   0.2222   0.0000  0.0053  !             
  0.0000   0.2037  -0.0000  0.0053  !             
  0.0000   0.1852   0.0000  0.0053  !             
 -0.0000   0.1667  -0.0000  0.0053  !             
 -0.0000   0.1481  -0.0000  0.0053  !             
 -0.0000   0.1296  -0.0000  0.0053  !             
  0.0000   0.1111  -0.0000  0.0053  !             
 -0.0000   0.0926  -0.0000  0.0053  !             
 -0.0000   0.0741  -0.0000  0.0053  !             
 -0.0000   0.0556  -0.0000  0.0053  !             
  0.0000   0.0370  -0.0000  0.0053  !             
  0.0000   0.0185   0.0000  0.0053  !             
  0.0000   0.0000   0.0000  0.0053  ! $\Gamma$    
  0.0000   0.0000   0.0000  0.0053  ! $\Gamma$    
  0.0000   0.0000   0.0278  0.0053  !             
  0.0000   0.0000   0.0556  0.0053  !             
  0.0000   0.0000   0.0833  0.0053  !             
  0.0000   0.0000   0.1111  0.0053  !             
  0.0000   0.0000   0.1389  0.0053  !             
  0.0000   0.0000   0.1667  0.0053  !             
  0.0000   0.0000   0.1944  0.0053  !             
  0.0000   0.0000   0.2222  0.0053  !             
  0.0000   0.0000   0.2500  0.0053  !             
  0.0000   0.0000   0.2778  0.0053  !             
  0.0000   0.0000   0.3056  0.0053  !             
  0.0000   0.0000   0.3333  0.0053  !             
  0.0000   0.0000   0.3611  0.0053  !             
  0.0000   0.0000   0.3889  0.0053  !             
  0.0000   0.0000   0.4167  0.0053  !             
  0.0000   0.0000   0.4444  0.0053  !             
  0.0000   0.0000   0.4722  0.0053  !             
  0.0000   0.0000   0.5000  0.0053  ! $Z$         
  0.5000   0.5000   0.5000  0.0053  ! $R$         
  0.4833   0.4833   0.4833  0.0053  !             
  0.4667   0.4667   0.4667  0.0053  !             
  0.4500   0.4500   0.4500  0.0053  !             
  0.4333   0.4333   0.4333  0.0053  !             
  0.4167   0.4167   0.4167  0.0053  !             
  0.4000   0.4000   0.4000  0.0053  !             
  0.3833   0.3833   0.3833  0.0053  !             
  0.3667   0.3667   0.3667  0.0053  !             
  0.3500   0.3500   0.3500  0.0053  !             
  0.3333   0.3333   0.3333  0.0053  !             
  0.3167   0.3167   0.3167  0.0053  !             
  0.3000   0.3000   0.3000  0.0053  !             
  0.2833   0.2833   0.2833  0.0053  !             
  0.2667   0.2667   0.2667  0.0053  !             
  0.2500   0.2500   0.2500  0.0053  !             
  0.2333   0.2333   0.2333  0.0053  !             
  0.2167   0.2167   0.2167  0.0053  !             
  0.2000   0.2000   0.2000  0.0053  !             
  0.1833   0.1833   0.1833  0.0053  !             
  0.1667   0.1667   0.1667  0.0053  !             
  0.1500   0.1500   0.1500  0.0053  !             
  0.1333   0.1333   0.1333  0.0053  !             
  0.1167   0.1167   0.1167  0.0053  !             
  0.1000   0.1000   0.1000  0.0053  !             
  0.0833   0.0833   0.0833  0.0053  !             
  0.0667   0.0667   0.0667  0.0053  !             
  0.0500   0.0500   0.0500  0.0053  !             
  0.0333   0.0333   0.0333  0.0053  !             
  0.0167   0.0167   0.0167  0.0053  !             
  0.0000   0.0000   0.0000  0.0053  ! $\Gamma$    
  0.0000   0.0000   0.0000  0.0053  ! $\Gamma$    
  0.0000   0.0185   0.0185  0.0053  !             
  0.0000   0.0370   0.0370  0.0053  !             
  0.0000   0.0556   0.0556  0.0053  !             
  0.0000   0.0741   0.0741  0.0053  !             
 -0.0000   0.0926   0.0926  0.0053  !             
  0.0000   0.1111   0.1111  0.0053  !             
 -0.0000   0.1296   0.1296  0.0053  !             
  0.0000   0.1481   0.1481  0.0053  !             
  0.0000   0.1667   0.1667  0.0053  !             
 -0.0000   0.1852   0.1852  0.0053  !             
  0.0000   0.2037   0.2037  0.0053  !             
  0.0000   0.2222   0.2222  0.0053  !             
 -0.0000   0.2407   0.2407  0.0053  !             
 -0.0000   0.2593   0.2593  0.0053  !             
 -0.0000   0.2778   0.2778  0.0053  !             
  0.0000   0.2963   0.2963  0.0053  !             
 -0.0000   0.3148   0.3148  0.0053  !             
  0.0000   0.3333   0.3333  0.0053  !             
  0.0000   0.3519   0.3519  0.0053  !             
 -0.0000   0.3704   0.3704  0.0053  !             
 -0.0000   0.3889   0.3889  0.0053  !             
  0.0000   0.4074   0.4074  0.0053  !             
  0.0000   0.4259   0.4259  0.0053  !             
  0.0000   0.4444   0.4444  0.0053  !             
 -0.0000   0.4630   0.4630  0.0053  !             
 -0.0000   0.4815   0.4815  0.0053  !             
  0.0000   0.5000   0.5000  0.0053  ! $T$         
  0.5000   0.0000   0.5000  0.0053  ! $U$         
  0.4800   0.0000   0.4800  0.0053  !             
  0.4600   0.0000   0.4600  0.0053  !             
  0.4400   0.0000   0.4400  0.0053  !             
  0.4200   0.0000   0.4200  0.0053  !             
  0.4000   0.0000   0.4000  0.0053  !             
  0.3800   0.0000   0.3800  0.0053  !             
  0.3600   0.0000   0.3600  0.0053  !             
  0.3400   0.0000   0.3400  0.0053  !             
  0.3200   0.0000   0.3200  0.0053  !             
  0.3000   0.0000   0.3000  0.0053  !             
  0.2800   0.0000   0.2800  0.0053  !             
  0.2600   0.0000   0.2600  0.0053  !             
  0.2400   0.0000   0.2400  0.0053  !             
  0.2200   0.0000   0.2200  0.0053  !             
  0.2000   0.0000   0.2000  0.0053  !             
  0.1800   0.0000   0.1800  0.0053  !             
  0.1600   0.0000   0.1600  0.0053  !             
  0.1400   0.0000   0.1400  0.0053  !             
  0.1200   0.0000   0.1200  0.0053  !             
  0.1000   0.0000   0.1000  0.0053  !             
  0.0800   0.0000   0.0800  0.0053  !             
  0.0600   0.0000   0.0600  0.0053  !             
  0.0400   0.0000   0.0400  0.0053  !             
  0.0200   0.0000   0.0200  0.0053  !             
  0.0000   0.0000   0.0000  0.0053  ! $\Gamma$    
  0.0000   0.0000   0.0000  0.0053  ! $\Gamma$    
  0.0156   0.0156   0.0000  0.0053  !             
  0.0312   0.0312   0.0000  0.0053  !             
  0.0469   0.0469  -0.0000  0.0053  !             
  0.0625   0.0625   0.0000  0.0053  !             
  0.0781   0.0781  -0.0000  0.0053  !             
  0.0938   0.0938  -0.0000  0.0053  !             
  0.1094   0.1094   0.0000  0.0053  !             
  0.1250   0.1250   0.0000  0.0053  !             
  0.1406   0.1406  -0.0000  0.0053  !             
  0.1562   0.1562  -0.0000  0.0053  !             
  0.1719   0.1719   0.0000  0.0053  !             
  0.1875   0.1875  -0.0000  0.0053  !             
  0.2031   0.2031   0.0000  0.0053  !             
  0.2187   0.2188   0.0000  0.0053  !             
  0.2344   0.2344   0.0000  0.0053  !             
  0.2500   0.2500   0.0000  0.0053  !             
  0.2656   0.2656  -0.0000  0.0053  !             
  0.2812   0.2812  -0.0000  0.0053  !             
  0.2969   0.2969  -0.0000  0.0053  !             
  0.3125   0.3125  -0.0000  0.0053  !             
  0.3281   0.3281   0.0000  0.0053  !             
  0.3437   0.3438   0.0000  0.0053  !             
  0.3594   0.3594   0.0000  0.0053  !             
  0.3750   0.3750  -0.0000  0.0053  !             
  0.3906   0.3906   0.0000  0.0053  !             
  0.4062   0.4062   0.0000  0.0053  !             
  0.4219   0.4219   0.0000  0.0053  !             
  0.4375   0.4375   0.0000  0.0053  !             
  0.4531   0.4531   0.0000  0.0053  !             
  0.4688   0.4688   0.0000  0.0053  !             
  0.4844   0.4844   0.0000  0.0053  !             
  0.5000   0.5000   0.0000  0.0053  ! $V$         