E = -1                                  
   1.00000000000000     
     4.7474640281634892    0.3530954078002028    0.3872865315325304
     0.3727998869893465    4.7026112752859843    0.3606563244156887
     0.4185837910546884    0.3616329912346141    4.7439461439807351
   Ga   N    O    Zn
     2     2     2     2
Direct
  0.3825636348488280  0.8434566734693361  0.0198807576950493
  0.8659442600849322  0.6666941099181491  0.5032315517216490
  0.5055174079408583  0.4329987258295822  0.1430815242064591
  0.3565784949548214  0.2699352902335597  0.9941955444903735
  0.9671957120478984  0.8693096473391372  0.1246591236492109
  0.4874318130451224  0.8693333370581570  0.6045781335610784
  0.4098761632863285  0.3242719176947965  0.5625283342607037
  0.9248925137912025  0.3240002984572695  0.0478450304154905
 
  0.00000000E+00  0.00000000E+00  0.00000000E+00
  0.00000000E+00  0.00000000E+00  0.00000000E+00
  0.00000000E+00  0.00000000E+00  0.00000000E+00
  0.00000000E+00  0.00000000E+00  0.00000000E+00
  0.00000000E+00  0.00000000E+00  0.00000000E+00
  0.00000000E+00  0.00000000E+00  0.00000000E+00
  0.00000000E+00  0.00000000E+00  0.00000000E+00
  0.00000000E+00  0.00000000E+00  0.00000000E+00
