E = -1                                  
   1.00000000000000     
     5.2122275703344849   -0.4465902667697262   -0.8576734377717866
    -0.1381381113472193    3.7617168386328719   -0.0348062370115791
    -0.9363863466241936    0.3848090353451622    5.5605781854050145
   Ga   N    O    Zn
     2     2     2     2
Direct
  0.6729444430107888  0.1005112857917028  0.4063937445887465
  0.1734244114782510  0.5590133664032668  0.3029619990398667
  0.9578390891411628  0.8648356701887981  0.0403474377684283
  0.2316837893535015  0.5307906812715462  0.6553340610561798
  0.4806034386066920  0.4911344899635030  0.2175924142071068
  0.8805076244003144  0.1752115210488905  0.1372003776821141
  0.1056579275682983  0.9957525985850703  0.7509210288520043
  0.5973392764410136  0.5827503867472270  0.8892489368055524
 
  0.00000000E+00  0.00000000E+00  0.00000000E+00
  0.00000000E+00  0.00000000E+00  0.00000000E+00
  0.00000000E+00  0.00000000E+00  0.00000000E+00
  0.00000000E+00  0.00000000E+00  0.00000000E+00
  0.00000000E+00  0.00000000E+00  0.00000000E+00
  0.00000000E+00  0.00000000E+00  0.00000000E+00
  0.00000000E+00  0.00000000E+00  0.00000000E+00
  0.00000000E+00  0.00000000E+00  0.00000000E+00
