E = -1                                  
   1.00000000000000     
     4.4819004116228829   -1.0604081160904819   -0.0721021991592014
    -1.0832639281936145    5.4191782645562041   -1.0503404116066255
    -0.1988665286191892   -1.1502242879546014    4.4556314854794818
   Ga   N    O    Zn
     2     2     2     2
Direct
  0.2662035992734997  0.6874835762496506  0.8755512848427370
  0.9994362638037270  0.1874621093835678  0.1087676064869783
  0.6245193854955935  0.9375332622312483  0.7684704533596666
  0.3565478190788720  0.4375163822054995  0.0004890564238392
  0.1241602609281396  0.9375017498024129  0.2258517752418602
  0.8991757929399725  0.4375163522097320  0.5008353024977921
  0.4994985750647830  0.1875188260363842  0.6445069550190717
  0.7304583034154196  0.6874677418814977  0.3755275661280689
 
  0.00000000E+00  0.00000000E+00  0.00000000E+00
  0.00000000E+00  0.00000000E+00  0.00000000E+00
  0.00000000E+00  0.00000000E+00  0.00000000E+00
  0.00000000E+00  0.00000000E+00  0.00000000E+00
  0.00000000E+00  0.00000000E+00  0.00000000E+00
  0.00000000E+00  0.00000000E+00  0.00000000E+00
  0.00000000E+00  0.00000000E+00  0.00000000E+00
  0.00000000E+00  0.00000000E+00  0.00000000E+00
