E = -1                                  
   1.00000000000000     
     5.0550994021298257    0.0024216315866667   -0.0933307187134641
     0.0183541859843757    4.8049499187343709    0.1624820417017219
    -0.1036770798083882    0.0208487586954975    4.4545236820012235
   Ga   N    O    Zn
     2     2     2     2
Direct
  0.1158456152118230  0.5480320474705371  0.1849621063046282
  0.1945720677881831  0.9904778884171721  0.7043688439958131
  0.0205501964394365  0.2317818421611526  0.4052939850192843
  0.9061873863480427  0.7555007863409774  0.8972200748525703
  0.7307041779188259  0.2171293137772506  0.3960526883017027
  0.3831042844387271  0.7350531370864446  0.3986335692206733
  0.6585097672050817  0.5361587619461632  0.6523358818527625
  0.5905265046498880  0.9858662228002962  0.0611328504525756
 
  0.00000000E+00  0.00000000E+00  0.00000000E+00
  0.00000000E+00  0.00000000E+00  0.00000000E+00
  0.00000000E+00  0.00000000E+00  0.00000000E+00
  0.00000000E+00  0.00000000E+00  0.00000000E+00
  0.00000000E+00  0.00000000E+00  0.00000000E+00
  0.00000000E+00  0.00000000E+00  0.00000000E+00
  0.00000000E+00  0.00000000E+00  0.00000000E+00
  0.00000000E+00  0.00000000E+00  0.00000000E+00
