E = -1                                  
   1.00000000000000     
     4.5897427119981504    0.1726191123264965   -0.2466942421962048
     0.1406031200430938    5.1690563198910651   -0.3129436206666161
    -0.2772659286456096   -0.1872515431437791    4.3651177856182279
   Ga   N    O    Zn
     2     2     2     2
Direct
  0.3834178331236656  0.8754567164615323  0.2723984787180337
  0.9445288275815741  0.8019250710876314  0.7147430852403110
  0.5520289422284759  0.6743626096396131  0.6319890618284825
  0.3497125026475951  0.6785655818188409  0.8649432730077683
  0.9031214789933916  0.1680828691231225  0.7852171749495631
  0.9946732646870553  0.7343332210547718  0.2735203137211685
  0.5892490210075226  0.2969367076462232  0.4938453576185979
  0.1832681297307186  0.3703372231682662  0.0633432549160905
 
  0.00000000E+00  0.00000000E+00  0.00000000E+00
  0.00000000E+00  0.00000000E+00  0.00000000E+00
  0.00000000E+00  0.00000000E+00  0.00000000E+00
  0.00000000E+00  0.00000000E+00  0.00000000E+00
  0.00000000E+00  0.00000000E+00  0.00000000E+00
  0.00000000E+00  0.00000000E+00  0.00000000E+00
  0.00000000E+00  0.00000000E+00  0.00000000E+00
  0.00000000E+00  0.00000000E+00  0.00000000E+00
