E = -1                                  
   1.00000000000000     
     3.2335806589668392   -0.0333711392844909    0.0630285138900273
     0.0749167204890331    5.5588365482150008   -0.9023630002038284
    -0.1171538450685424   -0.9708228295767442    5.5078934423538790
   Ga   N    O    Zn
     2     2     2     2
Direct
  0.6625530200569744  0.5182618217428057  0.0477366781471192
  0.1625463653123897  0.5182577167582456  0.5477374961549480
  0.6625206712980739  0.4118027138867724  0.6788825561263134
  0.1625273377873319  0.4118061492603425  0.1788825514701302
  0.1624426650065101  0.8844421485073808  0.6698473004597700
  0.6624573727299118  0.8844455935384936  0.1698469789301381
  0.1624849537199898  0.0354937790960854  0.0535328524422880
  0.6624676140888291  0.0354900772098760  0.5535335862692988
 
  0.00000000E+00  0.00000000E+00  0.00000000E+00
  0.00000000E+00  0.00000000E+00  0.00000000E+00
  0.00000000E+00  0.00000000E+00  0.00000000E+00
  0.00000000E+00  0.00000000E+00  0.00000000E+00
  0.00000000E+00  0.00000000E+00  0.00000000E+00
  0.00000000E+00  0.00000000E+00  0.00000000E+00
  0.00000000E+00  0.00000000E+00  0.00000000E+00
  0.00000000E+00  0.00000000E+00  0.00000000E+00
