E = -1                                  
   1.00000000000000     
     4.9287936687388658   -0.6053675422401663    0.1283414466192002
    -0.5145163931351180    4.5383189540265878   -0.1970694794343433
     0.1755918785075725   -0.2391040404176572    4.7448674456964621
   Ga   N    O    Zn
     2     2     2     2
Direct
  0.6558111150097774  0.8253042359963771  0.1296501598422309
  0.1266669742692623  0.8065091250375250  0.5930513844825985
  0.2250814686533854  0.2405445551004190  0.5607099715016630
  0.0926547292130245  0.4007499665744303  0.3836243473159588
  0.3715301764915613  0.8537027072228581  0.8981659298503283
  0.8254236636386838  0.5805785223488429  0.8505002772451196
  0.1514401748527251  0.3929683449551997  0.9720321157434855
  0.6513916978715956  0.2996425427643325  0.5122658140186138
 
  0.00000000E+00  0.00000000E+00  0.00000000E+00
  0.00000000E+00  0.00000000E+00  0.00000000E+00
  0.00000000E+00  0.00000000E+00  0.00000000E+00
  0.00000000E+00  0.00000000E+00  0.00000000E+00
  0.00000000E+00  0.00000000E+00  0.00000000E+00
  0.00000000E+00  0.00000000E+00  0.00000000E+00
  0.00000000E+00  0.00000000E+00  0.00000000E+00
  0.00000000E+00  0.00000000E+00  0.00000000E+00
