E = -1                                  
   1.00000000000000     
     4.7348145624041500    0.3016568872767063    0.3292093164945606
     0.3345342971669149    4.5051005958986066    0.3051827245380996
     0.3381770451726435    0.2564021564807336    4.8967376988219478
   Ga   N    O    Zn
     2     2     2     2
Direct
  0.4662051755451704  0.8933488704077795  0.1640964443481593
  0.0266157890549483  0.7860479788230428  0.5870078568248869
  0.0189720758945756  0.3740770433579555  0.7471590195401668
  0.8750652921974309  0.2117298544189067  0.5813325792744611
  0.0845801069115923  0.7454549022166232  0.1911956360914543
  0.4395299247071783  0.8149549563350377  0.5589406740561881
  0.4546719410939004  0.2270294674633701  0.7090939006880834
  0.9343596945951937  0.3473569269772619  0.1611738891766031
 
  0.00000000E+00  0.00000000E+00  0.00000000E+00
  0.00000000E+00  0.00000000E+00  0.00000000E+00
  0.00000000E+00  0.00000000E+00  0.00000000E+00
  0.00000000E+00  0.00000000E+00  0.00000000E+00
  0.00000000E+00  0.00000000E+00  0.00000000E+00
  0.00000000E+00  0.00000000E+00  0.00000000E+00
  0.00000000E+00  0.00000000E+00  0.00000000E+00
  0.00000000E+00  0.00000000E+00  0.00000000E+00
