E = -1                                  
   1.00000000000000     
     4.7816655029015918   -0.2876774084197731    0.2061248985772150
    -0.3398317911444991    4.5388082189714707   -0.3879523904477208
     0.2086933747958501   -0.3269610890250403    4.8281138114621758
   Ga   N    O    Zn
     2     2     2     2
Direct
  0.3889269082017222  0.8206461356043218  0.0739035684298179
  0.9798988693212634  0.9208625136604962  0.6078874336139698
  0.5501272205004684  0.2360610604266783  0.2009647233998787
  0.3994955343541964  0.3944637694464488  0.0364838329952541
 -0.0001316826039322  0.8378251418065150  0.2141905022144212
  0.3291663273654173  0.7742979368171773  0.6738094262581518
  0.4893037770127288  0.3516725806677541  0.6146242726154455
  0.9632130458481368  0.2641708615705886  0.0781362404730753
 
  0.00000000E+00  0.00000000E+00  0.00000000E+00
  0.00000000E+00  0.00000000E+00  0.00000000E+00
  0.00000000E+00  0.00000000E+00  0.00000000E+00
  0.00000000E+00  0.00000000E+00  0.00000000E+00
  0.00000000E+00  0.00000000E+00  0.00000000E+00
  0.00000000E+00  0.00000000E+00  0.00000000E+00
  0.00000000E+00  0.00000000E+00  0.00000000E+00
  0.00000000E+00  0.00000000E+00  0.00000000E+00
