E = -1                                  
   1.00000000000000     
     4.7579403446414004    0.3272575836434903    0.2325400045701246
     0.3849669674832520    4.6059793092011825    0.2793803422855692
     0.2128702664991329    0.2240392431003372    4.8537715116854452
   Ga   N    O    Zn
     2     2     2     2
Direct
  0.5568632260848601  0.8023003922696573  0.0924433938468751
  0.9636856809661007  0.8943720577253816  0.5640799185432790
  0.5474531284666464  0.3845724406102647  0.2397286512743932
  0.4035974022900137  0.2225501149333546  0.0689674533096392
  0.6206581270874278  0.7383423161388574  0.7097366598099474
  0.9456881410108600  0.7742955089973378  0.1931416351911394
  0.4714809914236351  0.3588560945592409  0.6554040585684434
  0.9905733026704630  0.3247110747658913  0.1764982294562936
 
  0.00000000E+00  0.00000000E+00  0.00000000E+00
  0.00000000E+00  0.00000000E+00  0.00000000E+00
  0.00000000E+00  0.00000000E+00  0.00000000E+00
  0.00000000E+00  0.00000000E+00  0.00000000E+00
  0.00000000E+00  0.00000000E+00  0.00000000E+00
  0.00000000E+00  0.00000000E+00  0.00000000E+00
  0.00000000E+00  0.00000000E+00  0.00000000E+00
  0.00000000E+00  0.00000000E+00  0.00000000E+00
