E = -1                                  
   1.00000000000000     
     5.5844058166630228   -0.0358522961363718    0.1924762165783150
     0.0189104951589324    3.2713511752964486    0.0604082520061786
     0.0473823238303033   -0.1034172425585359    5.5865279443187932
   Ga   N    O    Zn
     2     2     2     2
Direct
  0.3470174401861515  0.6500021036923742  0.2405288689742187
  0.0029839712312136  0.6499858036917066  0.5844715795472598
  0.3523911213664381  0.6499933891117213  0.5899502451366000
  0.9976090673908758  0.6500006523225849  0.2350489784429980
  0.8632730814146905  0.1500026687019106  0.7241548268146325
  0.4867268200544796  0.1500177675623600  0.1008455005619629
  0.4829604972257191  0.1499920873990325  0.7205291010689847
  0.8670380011304155  0.1500055275182985  0.1044708994533469
 
  0.00000000E+00  0.00000000E+00  0.00000000E+00
  0.00000000E+00  0.00000000E+00  0.00000000E+00
  0.00000000E+00  0.00000000E+00  0.00000000E+00
  0.00000000E+00  0.00000000E+00  0.00000000E+00
  0.00000000E+00  0.00000000E+00  0.00000000E+00
  0.00000000E+00  0.00000000E+00  0.00000000E+00
  0.00000000E+00  0.00000000E+00  0.00000000E+00
  0.00000000E+00  0.00000000E+00  0.00000000E+00
