E = -1                                  
   1.00000000000000     
     5.7660701881965197   -0.5183482333922318   -0.4912364918040708
    -0.5115002022549829    4.7065135197299766    0.3465071645971175
    -0.4444834956255938    0.3572971232125592    4.2410178044357121
   Ga   N    O    Zn
     2     2     2     2
Direct
  0.4879452728367060  0.0579852360196736  0.1906700500472515
  0.9868287593788024  0.8761667056037798  0.6473588330092482
  0.1509523227158497  0.8671058919767879  0.0828678642687473
  0.1596445510378248  0.0687154017843948  0.3164964888473945
  0.9609907558147102  0.4562564194255722  0.6547456143009059
  0.6433681208719851  0.8256193288132526  0.5445263083518721
  0.6285042165360565  0.3978901181097581  0.7475586152991842
  0.0817660008080739  0.4502608982667810  0.2157762258754017
 
  0.00000000E+00  0.00000000E+00  0.00000000E+00
  0.00000000E+00  0.00000000E+00  0.00000000E+00
  0.00000000E+00  0.00000000E+00  0.00000000E+00
  0.00000000E+00  0.00000000E+00  0.00000000E+00
  0.00000000E+00  0.00000000E+00  0.00000000E+00
  0.00000000E+00  0.00000000E+00  0.00000000E+00
  0.00000000E+00  0.00000000E+00  0.00000000E+00
  0.00000000E+00  0.00000000E+00  0.00000000E+00
