Zn2 Ga2 N2 O2
1.0
3.503199 0.000000 0.000000
-0.128525 5.200610 0.000000
-0.676326 -0.051429 5.660174
Zn Ga N O
2 2 2 2
direct
0.707712 0.128423 0.301152 Zn
0.738937 0.710677 0.723960 Zn
0.169735 0.325892 0.769381 Ga
0.218132 0.667158 0.200549 Ga
0.350248 0.865295 0.485401 N
0.082590 0.004682 0.593169 N
0.706546 0.790052 0.080804 O
0.226100 0.307821 0.145583 O
