Zn2 Ga2 N2 O2
1.0
3.185658 0.000000 0.000000
-0.181881 5.521475 0.000000
-0.513212 -0.782967 5.603717
Zn Ga N O
2 2 2 2
direct
0.280338 0.423571 0.164450 Zn
0.088289 0.710436 0.681299 Zn
0.656500 0.188970 0.651958 Ga
0.886474 0.859875 0.072208 Ga
0.427378 0.793498 0.267422 N
0.560137 0.849106 0.522636 N
0.150234 0.343917 0.537013 O
0.750651 0.230627 0.003014 O
