Zn2 Ga2 N2 O2
1.0
3.848824 0.000000 0.000000
1.296078 4.763599 0.000000
0.807496 -0.008249 6.073653
Zn Ga N O
2 2 2 2
direct
0.706742 0.881528 0.768349 Zn
0.789672 0.034657 0.303904 Zn
0.231879 0.432114 0.075988 Ga
0.097048 0.464761 0.561687 Ga
0.217031 0.194368 0.334700 N
0.813388 0.746979 0.071789 N
0.373835 0.260758 0.791937 O
0.570404 0.584836 0.191646 O
