Zn4 Ga4 N4 O4
1.0
12.006425 0.000000 0.000000
0.000000 3.278257 0.000000
-2.548699 0.000000 4.989950
Zn Ga N O
4 4 4 4
direct
0.733861 0.000000 0.497468 Zn
0.744147 0.500000 0.984549 Zn
0.233861 0.500000 0.497468 Zn
0.244147 0.000000 0.984549 Zn
0.003143 0.000000 0.410896 Ga
0.994135 0.500000 0.929404 Ga
0.503143 0.500000 0.410896 Ga
0.494135 0.000000 0.929404 Ga
0.932852 0.500000 0.195564 N
0.679812 0.500000 0.594994 N
0.432852 0.000000 0.195564 N
0.179812 0.000000 0.594994 N
0.942464 0.000000 0.701523 O
0.669856 0.000000 0.085602 O
0.442464 0.500000 0.701523 O
0.169856 0.500000 0.085602 O
