Zn2 Ga2 N2 O2
1.0
3.320726 0.000000 0.000000
0.090662 4.765371 0.000000
0.092015 0.014177 6.832663
Zn Ga N O
2 2 2 2
direct
0.541698 0.642942 0.222618 Zn
0.069924 0.551215 0.608389 Zn
0.169620 0.086648 0.318957 Ga
0.572031 0.067990 0.791320 Ga
0.568882 0.482098 0.771024 N
0.037283 0.467987 0.323387 N
0.561202 0.704426 0.925531 O
0.079360 0.996693 0.638775 O
