Zn2 Ga2 N2 O2
1.0
4.474844 0.000000 0.000000
-1.592919 5.218171 0.000000
-1.872136 -2.017966 5.108983
Zn Ga N O
2 2 2 2
direct
0.844506 0.989946 0.963061 Zn
0.575512 0.234315 0.238609 Zn
0.124904 0.582485 0.284143 Ga
0.146054 0.581085 0.820087 Ga
0.207143 0.862275 0.129867 N
0.468823 0.657741 0.648672 N
0.629302 0.453154 0.614850 O
0.203756 0.338999 0.000710 O
