Zn2 Ga2 N2 O2
1.0
4.589075 0.000000 0.000000
2.045086 4.459586 0.000000
1.123971 0.158616 5.408850
Zn Ga N O
2 2 2 2
direct
0.938579 0.178947 0.645904 Zn
0.577933 0.928515 0.548400 Zn
0.078312 0.462285 0.113832 Ga
0.269706 0.571803 0.645528 Ga
0.969203 0.542788 0.457449 N
0.589931 0.116033 0.138537 N
0.831334 0.224870 0.026648 O
0.645002 0.874758 0.023701 O
