Zn2 Ga2 N2 O2
1.0
3.977618 0.000000 0.000000
0.774041 5.275452 0.000000
0.913046 0.017251 5.417515
Zn Ga N O
2 2 2 2
direct
0.384161 0.469709 0.984619 Zn
0.730743 0.400259 0.410886 Zn
0.170512 0.939086 0.661257 Ga
0.871192 0.959612 0.103253 Ga
0.134355 0.099169 0.339377 N
0.453265 0.189172 0.221653 N
0.482952 0.634776 0.665127 O
0.872821 0.608216 0.113830 O
