Zn4 Ga4 N4 O4
1.0
6.512900 0.000000 0.000000
0.000000 6.515204 0.000000
-3.229716 0.000000 4.586026
Zn Ga N O
4 4 4 4
direct
0.952497 0.615493 0.474989 Zn
0.952497 0.384507 0.974989 Zn
0.452497 0.115493 0.474989 Zn
0.452497 0.884507 0.974989 Zn
0.470317 0.366620 0.974982 Ga
0.970317 0.133380 0.474982 Ga
0.970317 0.866620 0.974982 Ga
0.470317 0.633380 0.474982 Ga
0.828026 0.633994 0.725019 N
0.828026 0.366006 0.225019 N
0.328026 0.133994 0.725019 N
0.328026 0.866006 0.225019 N
0.349151 0.387511 0.225010 O
0.349151 0.612489 0.725010 O
0.849151 0.887511 0.225010 O
0.849151 0.112489 0.725010 O
