Zn2 Ga2 N2 O2
1.0
5.266985 0.000000 0.000000
0.000000 3.254054 0.000000
-0.040926 0.000000 5.745091
Zn Ga N O
2 2 2 2
direct
0.046591 0.000000 0.746262 Zn
0.508660 0.500000 0.596255 Zn
0.499064 0.000000 0.087440 Ga
0.033500 0.500000 0.264126 Ga
0.416711 0.000000 0.769912 N
0.396317 0.500000 0.251842 N
0.891292 0.000000 0.113234 O
0.907864 0.500000 0.570930 O
