Zn2 Ga2 N2 O2
1.0
4.584600 0.000000 0.000000
0.567913 4.560254 0.000000
0.779516 0.207076 4.710207
Zn Ga N O
2 2 2 2
direct
0.647821 0.754503 0.169977 Zn
0.290229 0.317230 0.219828 Zn
0.240042 0.728695 0.610790 Ga
0.752716 0.187121 0.654529 Ga
0.178237 0.170437 0.637294 N
0.340442 0.331781 0.800072 N
0.796056 0.754654 0.753344 O
0.754456 0.155580 0.254166 O
