Zn2 Ga2 N2 O2
1.0
5.272587 0.000000 0.000000
0.000000 3.276550 0.000000
-0.061668 0.000000 5.666424
Zn Ga N O
2 2 2 2
direct
0.622653 0.500000 0.689357 Zn
0.135316 0.000000 0.533772 Zn
0.626895 0.000000 0.226247 Ga
0.110264 0.500000 0.044421 Ga
0.992943 0.000000 0.191230 N
0.508860 0.000000 0.535843 N
0.013484 0.500000 0.722884 O
0.489585 0.500000 0.056246 O
