Zn2 Ga2 N2 O2
1.0
5.311225 0.000000 0.000000
0.000000 3.237434 0.000000
-0.065292 0.000000 5.698609
Zn Ga N O
2 2 2 2
direct
0.798421 0.000000 0.508604 Zn
0.278305 0.000000 0.851801 Zn
0.780537 0.500000 0.980370 Ga
0.293457 0.500000 0.312814 Ga
0.902824 0.000000 0.837913 N
0.422267 0.500000 0.009077 N
0.926495 0.500000 0.317071 O
0.397693 0.000000 0.482349 O
