Zn2 Ga2 N2 O2
1.0
5.220909 0.000000 0.000000
-0.214327 5.637190 0.000000
-2.351931 -1.971551 6.916666
Zn Ga N O
2 2 2 2
direct
0.279854 0.463789 0.533805 Zn
0.668943 0.633183 0.467279 Zn
0.662420 0.150477 0.307187 Ga
0.198452 0.015363 0.491479 Ga
0.867448 0.310481 0.923817 N
0.083941 0.375129 0.950602 N
0.056830 0.733639 0.535102 O
0.482112 0.917939 0.390729 O
