Zn2 Ga2 N2 O2
1.0
4.530358 0.000000 0.000000
-1.455953 4.606364 0.000000
-1.249119 -1.829953 4.856080
Zn Ga N O
2 2 2 2
direct
0.271227 0.199955 0.252335 Zn
0.856776 0.066417 0.669478 Zn
0.076183 0.577894 0.435739 Ga
0.578694 0.573952 0.905358 Ga
0.334325 0.136788 0.892968 N
0.444142 0.890927 0.763838 N
0.742736 0.427504 0.608780 O
0.895917 0.826562 0.271504 O
