Zn2 Ga2 N2 O2
1.0
3.236010 0.000000 0.000000
0.009623 5.643400 0.000000
1.594827 0.956312 6.897347
Zn Ga N O
2 2 2 2
direct
0.296881 0.134260 0.390209 Zn
0.980097 0.296692 0.025418 Zn
0.694179 0.395317 0.593606 Ga
0.866488 0.655410 0.250253 Ga
0.156080 0.841349 0.681008 N
0.081658 0.849877 0.841620 N
0.559779 0.320393 0.864257 O
0.864838 0.006704 0.253627 O
