Zn2 Ga2 N2 O2
1.0
4.606969 0.000000 0.000000
0.650328 4.656651 0.000000
0.800559 0.670051 4.823937
Zn Ga N O
2 2 2 2
direct
0.253389 0.641996 0.481481 Zn
0.684783 0.012175 0.426867 Zn
0.204704 0.177535 0.940940 Ga
0.766331 0.769779 0.884519 Ga
0.344269 0.758734 0.069051 N
0.183186 0.598074 0.925465 N
0.278056 0.205381 0.541204 O
0.785282 0.136325 0.030473 O
