Zn2 Ga2 N2 O2
1.0
5.033440 0.000000 0.000000
0.431037 5.174355 0.000000
1.237766 0.169942 5.837151
Zn Ga N O
2 2 2 2
direct
0.473221 0.560043 0.013808 Zn
0.988195 0.042584 0.439617 Zn
0.001941 0.485726 0.276959 Ga
0.393743 0.716706 0.465761 Ga
0.857989 0.550027 0.999602 N
0.293029 0.532585 0.757313 N
0.025369 0.464960 0.795727 O
0.766512 0.747368 0.451213 O
