Zn2 Ga2 N2 O2
1.0
4.291784 0.000000 0.000000
0.958334 4.720473 0.000000
1.022648 0.094649 5.652865
Zn Ga N O
2 2 2 2
direct
0.015194 0.775103 0.451746 Zn
0.095857 0.150828 0.700269 Zn
0.765465 0.783332 0.894445 Ga
0.323592 0.354776 0.106979 Ga
0.102373 0.785642 0.095643 N
0.316694 0.979910 0.980378 N
0.732300 0.397243 0.934116 O
0.248525 0.373167 0.436425 O
