Zn2 Ga2 N2 O2
1.0
4.903887 0.000000 0.000000
-2.314848 4.828461 0.000000
-0.983044 -1.612176 5.055124
Zn Ga N O
2 2 2 2
direct
0.142684 0.448880 0.951133 Zn
0.306684 0.233314 0.398286 Zn
0.682431 0.699837 0.904781 Ga
0.089418 0.592532 0.440007 Ga
0.451801 0.004307 0.654952 N
0.705845 0.064992 0.808082 N
0.756451 0.557852 0.578224 O
0.064686 0.798287 0.164535 O
