Zn2 Ga2 N2 O2
1.0
4.444411 0.000000 0.000000
0.350728 4.535703 0.000000
1.925650 0.317294 5.164047
Zn Ga N O
2 2 2 2
direct
0.577628 0.710950 0.457780 Zn
0.165564 0.187775 0.326660 Zn
0.546656 0.936769 0.850814 Ga
0.965738 0.401193 0.914139 Ga
0.073198 0.993451 0.054164 N
0.836292 0.782252 0.080240 N
0.531901 0.336168 0.959808 O
0.203023 0.451440 0.556395 O
