Zn2 Ga2 N2 O2
1.0
4.966080 0.000000 0.000000
-1.772205 4.685144 0.000000
-1.027891 -1.064499 5.300677
Zn Ga N O
2 2 2 2
direct
0.287420 0.820020 0.816955 Zn
0.099100 0.231040 0.365389 Zn
0.855964 0.579488 0.267947 Ga
0.813373 0.038019 0.830105 Ga
0.400730 0.444843 0.156749 N
0.248455 0.423026 0.944598 N
0.013520 0.853521 0.057979 O
0.981438 0.910043 0.560278 O
