Zn2 Ga2 N2 O2
1.0
5.288878 0.000000 0.000000
0.000000 3.239750 0.000000
-0.008208 0.000000 5.707078
Zn Ga N O
2 2 2 2
direct
0.008653 0.500000 0.194407 Zn
0.549509 0.500000 0.527428 Zn
0.543280 0.000000 0.026206 Ga
0.010788 0.000000 0.700940 Ga
0.654993 0.000000 0.706497 N
0.633349 0.500000 0.188328 N
0.161338 0.000000 0.012522 O
0.138090 0.500000 0.543672 O
