Zn2 Ga2 N2 O2
1.0
4.475856 0.000000 0.000000
0.000000 4.711493 0.000000
0.000000 0.000000 4.603353
Zn Ga N O
2 2 2 2
direct
0.270309 0.000000 0.500000 Zn
0.729691 0.000000 0.000000 Zn
0.264922 0.500000 0.000000 Ga
0.735078 0.500000 0.500000 Ga
0.500000 0.263201 0.250000 N
0.500000 0.736799 0.750000 N
0.000000 0.727842 0.250000 O
0.000000 0.272158 0.750000 O
