Na1 B2 C6                               
   1.00000000000000     
     5.5848760701233360   -0.8546327434232638   -0.4186280127584881
    -3.5706061198563837    6.8042933231643596    0.5544242508121285
    -5.1419175781765434   -0.3569850266720874   10.1219458020746664
   B    C    Na
     2     6     1
Direct
  0.5106023374211833  0.2268511670799508  0.5539251577525107
  0.2740351019997504  0.7979857303216786  0.4903962956209633
  0.4460938848952919  0.6835763883422625  0.5354272641452501
  0.2940156711348484  0.9908368152353800  0.5020460729464810
  0.1090566024932943  0.0798133311221369  0.4568818547242968
  0.2455153999761549  0.4621592782538316  0.4866146866135500
  0.2709971483534102  0.2939601663475522  0.4965775010462949
  0.0783842766947922  0.5627095721472126  0.4469555665337839
 -0.0684294229687239  0.6647375511499970  0.6205026006168661
 
  0.00000000E+00  0.00000000E+00  0.00000000E+00
  0.00000000E+00  0.00000000E+00  0.00000000E+00
  0.00000000E+00  0.00000000E+00  0.00000000E+00
  0.00000000E+00  0.00000000E+00  0.00000000E+00
  0.00000000E+00  0.00000000E+00  0.00000000E+00
  0.00000000E+00  0.00000000E+00  0.00000000E+00
  0.00000000E+00  0.00000000E+00  0.00000000E+00
  0.00000000E+00  0.00000000E+00  0.00000000E+00
  0.00000000E+00  0.00000000E+00  0.00000000E+00
