Na1 B2 C6                               
   1.00000000000000     
     5.5197500605968717   -0.1210378777316254   -0.0248650069195621
    -2.6723473194445333    7.2184201338991398   -0.1726795950529803
    -0.1074306281631258   -0.5905148761818404   20.4236470778094343
   B    C    Na
     2     6     1
Direct
  0.4252997915880124  0.1958765460772012  0.4931261353595247
  0.2262884338993791  0.7997636673937464  0.5011481550835474
  0.3769078416376240  0.6720852676395971  0.5026857834959020
  0.2459360815903870  0.9938595712411680  0.4944934111985960
  0.1030995973196090  0.1135833007007789  0.4931889426437492
  0.2329409574518388  0.4784374395357627  0.4998404143578010
  0.2534011287398962  0.3070138971802822  0.4976231173220446
  0.0821130442352648  0.5910898797160697  0.4984358961442150
  0.2436221235379929  0.0808724305154022  0.6087851443946171
 
  0.00000000E+00  0.00000000E+00  0.00000000E+00
  0.00000000E+00  0.00000000E+00  0.00000000E+00
  0.00000000E+00  0.00000000E+00  0.00000000E+00
  0.00000000E+00  0.00000000E+00  0.00000000E+00
  0.00000000E+00  0.00000000E+00  0.00000000E+00
  0.00000000E+00  0.00000000E+00  0.00000000E+00
  0.00000000E+00  0.00000000E+00  0.00000000E+00
  0.00000000E+00  0.00000000E+00  0.00000000E+00
  0.00000000E+00  0.00000000E+00  0.00000000E+00
