Na1 B2 C6                               
   1.00000000000000     
     5.5859212027414316    0.5581555548008189    0.0344054848123428
    -1.8481398455855120    7.5018754242111205   -0.0818931321546923
     0.1882792962626706   -0.0993228750074117   15.1588606952424421
   B    C    Na
     2     6     1
Direct
  0.3972604927689301  0.1588209347306620  0.5205525774974405
  0.2226192523068828  0.8023733933038586  0.5059644719563448
  0.3622989473029548  0.6504661351385194  0.5160735851728395
  0.2292305360837732  0.9906612834373246  0.5087443156719390
  0.1139534873044023  0.1385192253339072  0.5001461590847043
  0.2414607911106835  0.4793970683289418  0.5062585931359626
  0.2510357140389153  0.3045643554110649  0.5088497536457177
  0.1010400328357306  0.6177187367651291  0.4953732223870498
  0.7678157462477347  0.3810488675505987  0.5273643214479992
 
  0.00000000E+00  0.00000000E+00  0.00000000E+00
  0.00000000E+00  0.00000000E+00  0.00000000E+00
  0.00000000E+00  0.00000000E+00  0.00000000E+00
  0.00000000E+00  0.00000000E+00  0.00000000E+00
  0.00000000E+00  0.00000000E+00  0.00000000E+00
  0.00000000E+00  0.00000000E+00  0.00000000E+00
  0.00000000E+00  0.00000000E+00  0.00000000E+00
  0.00000000E+00  0.00000000E+00  0.00000000E+00
  0.00000000E+00  0.00000000E+00  0.00000000E+00
