Na1 B2 C6                               
   1.00000000000000     
     6.2572095709465039    0.0089123858792083   -0.2694965899617220
    -0.0245580210375263    6.4003486600825878    0.0039738189542428
    -0.9520271852425728    0.0087366752468627   18.9880584574325830
   B    C    Na
     2     6     1
Direct
  0.5065372586560790  0.1650674599733202  0.4969236779082379
  0.5061106381047078  0.8348093871101010  0.4969327334317335
  0.5048051561255553  0.5961835321493205  0.4998851407044199
  0.1038357922932610  0.9997399401678773  0.4939783635466782
  0.5051879816323132  0.4036642644058247  0.4998828281356893
  0.9048932754292972  0.0001255117572786  0.4986417515676327
  0.3217205534101535  0.9997257629974746  0.4931476258324476
  0.6888410806309467  0.0001455785865501  0.4999483157305511
  0.2750642637176888  0.0000955628522634  0.6132625631426067
 
  0.00000000E+00  0.00000000E+00  0.00000000E+00
  0.00000000E+00  0.00000000E+00  0.00000000E+00
  0.00000000E+00  0.00000000E+00  0.00000000E+00
  0.00000000E+00  0.00000000E+00  0.00000000E+00
  0.00000000E+00  0.00000000E+00  0.00000000E+00
  0.00000000E+00  0.00000000E+00  0.00000000E+00
  0.00000000E+00  0.00000000E+00  0.00000000E+00
  0.00000000E+00  0.00000000E+00  0.00000000E+00
  0.00000000E+00  0.00000000E+00  0.00000000E+00
