Na1 B2 C6
1.0
4.564281 0.000000 0.000000
-0.722387 6.882324 0.000000
0.000000 0.000000 19.357308
B C Na
2 6 1
direct
0.222328 0.825423 0.500000 B
0.777672 0.174577 0.500000 B
0.875583 0.778196 0.500000 C
0.554130 0.778331 0.500000 C
0.124417 0.221804 0.500000 C
0.741863 0.948348 0.500000 C
0.445870 0.221669 0.500000 C
0.258137 0.051652 0.500000 C
0.406134 0.914992 0.603320 Na
