Na1 B2 C6                               
   1.00000000000000     
     7.0001064832723996    0.0002024967380548    0.0437979685883419
     0.0003815951228269    3.6939535528647403   -0.0578177846551439
     0.1395121987412938   -0.3336277657011218   18.4458039280309620
   B    C    Na
     2     6     1
Direct
  0.7491930776640192  0.8476943884084188  0.4938138608419616
  0.2486165698898714  0.1599702004910749  0.5003855068023023
  0.7493350726690058  0.2544506611380121  0.4935857954285566
  0.2486275269716342  0.7496885194347362  0.5013293861646954
  0.3998600165081412  0.4773299265602403  0.4981740710861629
  0.0982421367950438  0.4777608909445709  0.5005283789986525
  0.5977138862295045  0.5311859063505269  0.4928652463960894
  0.8999030053071762  0.5314256097642271  0.4959312686467500
  0.7077607079656052  0.5154238969081942  0.6212984856348300
 
  0.00000000E+00  0.00000000E+00  0.00000000E+00
  0.00000000E+00  0.00000000E+00  0.00000000E+00
  0.00000000E+00  0.00000000E+00  0.00000000E+00
  0.00000000E+00  0.00000000E+00  0.00000000E+00
  0.00000000E+00  0.00000000E+00  0.00000000E+00
  0.00000000E+00  0.00000000E+00  0.00000000E+00
  0.00000000E+00  0.00000000E+00  0.00000000E+00
  0.00000000E+00  0.00000000E+00  0.00000000E+00
  0.00000000E+00  0.00000000E+00  0.00000000E+00
