Na1 B2 C6                               
   1.00000000000000     
     5.2330514822862133   -0.5606660401682664    0.9368236189336921
    -2.8359981061474842    7.1573861614903969    0.3989221007528663
     2.5329166118252604    3.8551265999753714   10.2692702327167158
   B    C    Na
     2     6     1
Direct
  0.2671619046890159  0.1074584209387401  0.5656592689190577
  0.1935442283202192  0.7782754449699842  0.4833453437680778
  0.2405545299132226  0.6025179313258460  0.5486830409658773
  0.2031685256476880  0.9654057488945454  0.4933720837208477
  0.1652202998207168  0.1345373101561327  0.4445537465693566
  0.1971890417992360  0.4505171351830637  0.4966736231852557
  0.2043909738053249  0.2735032473412651  0.5052127308142018
  0.1537325269459138  0.6118089380254056  0.4350251067577033
  0.5335289690586683  0.8941898231650223  0.6168020552996201
 
  0.00000000E+00  0.00000000E+00  0.00000000E+00
  0.00000000E+00  0.00000000E+00  0.00000000E+00
  0.00000000E+00  0.00000000E+00  0.00000000E+00
  0.00000000E+00  0.00000000E+00  0.00000000E+00
  0.00000000E+00  0.00000000E+00  0.00000000E+00
  0.00000000E+00  0.00000000E+00  0.00000000E+00
  0.00000000E+00  0.00000000E+00  0.00000000E+00
  0.00000000E+00  0.00000000E+00  0.00000000E+00
  0.00000000E+00  0.00000000E+00  0.00000000E+00
