Na1 B2 C6                               
   1.00000000000000     
     6.9810774415691785    0.0000007898964130    0.0000003720407417
     0.0000004050067761    3.6938307532214325    0.0394125591123519
     0.0000015558268245    0.2252131723730541   18.8946454187661175
   B    C    Na
     2     6     1
Direct
  0.7499999809794213  0.8420629824406959  0.4905540368355952
  0.2500000359190122  0.1538543616702707  0.5033904749745435
  0.7499999948640037  0.2488562078258374  0.4913453300223131
  0.2499999855286738  0.7433522246700135  0.5043871679908966
  0.4009096301426281  0.4712943962766146  0.5018464111685139
  0.0990903669476285  0.4712944385677621  0.5018463715920298
  0.5987581896449505  0.5262254975183819  0.4938165558370574
  0.9012418029441915  0.5262254062323148  0.4938164999693856
  0.7500000130294903  0.0700674847981082  0.6169091516096646
 
  0.00000000E+00  0.00000000E+00  0.00000000E+00
  0.00000000E+00  0.00000000E+00  0.00000000E+00
  0.00000000E+00  0.00000000E+00  0.00000000E+00
  0.00000000E+00  0.00000000E+00  0.00000000E+00
  0.00000000E+00  0.00000000E+00  0.00000000E+00
  0.00000000E+00  0.00000000E+00  0.00000000E+00
  0.00000000E+00  0.00000000E+00  0.00000000E+00
  0.00000000E+00  0.00000000E+00  0.00000000E+00
  0.00000000E+00  0.00000000E+00  0.00000000E+00
