Na1 B2 C6                               
   1.00000000000000     
     7.2052825717021713   -0.0767942277076419   -0.7474890239422324
     0.0320683046278906    4.0351763419834619   -0.4357047225962064
    -2.2344688641135648    0.5837566131573650   12.6016644448969171
   B    C    Na
     2     6     1
Direct
  0.1293044537656232  0.1259271216128692  0.5020486978114633
  0.9021979158449269  0.1293793973006265  0.4987680563296555
  0.5951851747055136  0.4931950207701899  0.4923273518973437
  0.1197768723706962  0.7376788133493518  0.5028249721993239
  0.7946211761139771  0.4586450635727303  0.4970541213764036
  0.9110575196349360  0.7401353083322910  0.5005764652493442
  0.4278053367213291  0.4891845341621923  0.4982880128644807
  0.2337197657584421  0.4544544567243205  0.5016951669270732
  0.6289047850845554  0.0121552841754266  0.5980171553449187
 
  0.00000000E+00  0.00000000E+00  0.00000000E+00
  0.00000000E+00  0.00000000E+00  0.00000000E+00
  0.00000000E+00  0.00000000E+00  0.00000000E+00
  0.00000000E+00  0.00000000E+00  0.00000000E+00
  0.00000000E+00  0.00000000E+00  0.00000000E+00
  0.00000000E+00  0.00000000E+00  0.00000000E+00
  0.00000000E+00  0.00000000E+00  0.00000000E+00
  0.00000000E+00  0.00000000E+00  0.00000000E+00
  0.00000000E+00  0.00000000E+00  0.00000000E+00
