Na1 B2 C6                               
   1.00000000000000     
     7.2678992045735784    0.0000800511588768   -0.0213529138391768
     0.0000822569853559    4.0374711209947103    0.0291357267482032
    -0.0764718679447226    0.1797423493743263   19.9242082128657714
   B    C    Na
     2     6     1
Direct
  0.8867962966663312  0.1475738982357061  0.4971679198053504
  0.1143716851025800  0.1475786879171290  0.4970142696033876
  0.8951865448611670  0.7600647978912487  0.4980081667039711
  0.7791821689871981  0.4769292753423868  0.4987096121205234
  0.1060081020605267  0.7600712744122143  0.4978821447397737
  0.2220812001841292  0.4769043763860270  0.4984943021390437
  0.5852287508617937  0.5067984712913960  0.4997016790963427
  0.4160398647984464  0.5068231460683276  0.4996065741149838
  0.0030483864778256  0.4743500724555665  0.6040743316766262
 
  0.00000000E+00  0.00000000E+00  0.00000000E+00
  0.00000000E+00  0.00000000E+00  0.00000000E+00
  0.00000000E+00  0.00000000E+00  0.00000000E+00
  0.00000000E+00  0.00000000E+00  0.00000000E+00
  0.00000000E+00  0.00000000E+00  0.00000000E+00
  0.00000000E+00  0.00000000E+00  0.00000000E+00
  0.00000000E+00  0.00000000E+00  0.00000000E+00
  0.00000000E+00  0.00000000E+00  0.00000000E+00
  0.00000000E+00  0.00000000E+00  0.00000000E+00
