Na1 B2 C6                               
   1.00000000000000     
     5.1911025171188161    0.0061905721333376   -0.0000058930928059
     0.0055237507644047    4.4625175312908825   -0.0000098781407946
    -0.0000252251787385   -0.0000460147443723   18.8171239133645471
   B    C    Na
     2     6     1
Direct
  0.7499288916799335  0.1586822793307403  0.4964869842276062
  0.2500704868567018  0.8413172961566162  0.4964867721499351
  0.7509937271221281  0.8127220084479790  0.4970692447873659
  0.9936271927918157  0.6613001630444574  0.4961268412236618
  0.0063723577319570  0.3386995297533820  0.4961267259931610
  0.4939657335859810  0.3415283578808874  0.4973163446906475
  0.5060333861032965  0.6584709890321359  0.4973165022602296
  0.2490055122326830  0.1872774578587475  0.4970688044467501
  0.0000027118955036  0.5000019184950548  0.6245167802206424
 
  0.00000000E+00  0.00000000E+00  0.00000000E+00
  0.00000000E+00  0.00000000E+00  0.00000000E+00
  0.00000000E+00  0.00000000E+00  0.00000000E+00
  0.00000000E+00  0.00000000E+00  0.00000000E+00
  0.00000000E+00  0.00000000E+00  0.00000000E+00
  0.00000000E+00  0.00000000E+00  0.00000000E+00
  0.00000000E+00  0.00000000E+00  0.00000000E+00
  0.00000000E+00  0.00000000E+00  0.00000000E+00
  0.00000000E+00  0.00000000E+00  0.00000000E+00
