Na1 B2 C6                               
   1.00000000000000     
     5.5511960681097161   -0.1489907021608302   -0.0469018238139720
    -2.7253604017785551    7.1922557383912356   -0.2981420420674283
    -0.1933064701431222   -1.0109575045594699   19.4904076116503724
   B    C    Na
     2     6     1
Direct
  0.4274595724395201  0.1992262858127825  0.4949420926114704
  0.2271174816831621  0.8017538514279963  0.5009637230152765
  0.3783205940841484  0.6765407495274794  0.5035811353924142
  0.2464664626866393  0.9963933353215719  0.4971575521030845
  0.1052123307532115  0.1128419671553127  0.4889028130725475
  0.2344527141318806  0.4804410022235199  0.4983382309277644
  0.2544589111994185  0.3088462534303147  0.4952929031880011
  0.0833624033718333  0.5915723889077463  0.4959721624998173
  0.2372015296501933  0.1683411661932835  0.6141763871896215
 
  0.00000000E+00  0.00000000E+00  0.00000000E+00
  0.00000000E+00  0.00000000E+00  0.00000000E+00
  0.00000000E+00  0.00000000E+00  0.00000000E+00
  0.00000000E+00  0.00000000E+00  0.00000000E+00
  0.00000000E+00  0.00000000E+00  0.00000000E+00
  0.00000000E+00  0.00000000E+00  0.00000000E+00
  0.00000000E+00  0.00000000E+00  0.00000000E+00
  0.00000000E+00  0.00000000E+00  0.00000000E+00
  0.00000000E+00  0.00000000E+00  0.00000000E+00
