Na1 B2 C6                               
   1.00000000000000     
     6.2509710419470181    0.0036705084472932    0.0000011850516687
    -0.0301959312263515    6.3289361717269976    0.0000015551467529
     0.0000050795096937    0.0000026839257316   15.6046943871493191
   B    C    Na
     2     6     1
Direct
  0.5003613888322423  0.1617694139502751  0.5064651521666633
  0.4996385767134699  0.8382304869141824  0.5064653239582422
  0.4996241117117565  0.5975804645140167  0.5129755560317234
  0.1007146885858238  0.9996143376537613  0.5069992569120138
  0.5003759150844668  0.4024196827879037  0.5129753531739485
  0.8992852756064442  0.0003852301145128  0.5069992371345250
  0.3164874941428933  0.9996072827495333  0.5043100592579709
  0.6835125753527754  0.0003925470249197  0.5043100186483971
 -0.0000000260298717  0.5000005542909022  0.5311030427165124
 
  0.00000000E+00  0.00000000E+00  0.00000000E+00
  0.00000000E+00  0.00000000E+00  0.00000000E+00
  0.00000000E+00  0.00000000E+00  0.00000000E+00
  0.00000000E+00  0.00000000E+00  0.00000000E+00
  0.00000000E+00  0.00000000E+00  0.00000000E+00
  0.00000000E+00  0.00000000E+00  0.00000000E+00
  0.00000000E+00  0.00000000E+00  0.00000000E+00
  0.00000000E+00  0.00000000E+00  0.00000000E+00
  0.00000000E+00  0.00000000E+00  0.00000000E+00
