Na1 B2 C6                               
   1.00000000000000     
     7.2495843154076889   -0.0109933753970580   -0.0410956760590261
    -0.0011594006403406    3.9258621265054416   -0.8825622459235569
    -0.1309400991605427   -0.2485118819201605   22.2994996677562369
   B    C    Na
     2     6     1
Direct
  0.1140319350628366  0.1586311396938557  0.4963001464858356
  0.8864897269539094  0.1620826546860630  0.4994045133264456
  0.5857525650431682  0.5238923812509033  0.5011232875539761
  0.1047581590361794  0.7690813700398216  0.4954582871537054
  0.7795013223404409  0.4929057674853956  0.5008179711944937
  0.8956923953774864  0.7730433826090185  0.4991185933539797
  0.4159325220986884  0.5212825248802768  0.4986656014908548
  0.2219538686639850  0.4871366110154018  0.4964689623615423
  0.0976065054233095  0.8824111683392594  0.6042356370791694
 
  0.00000000E+00  0.00000000E+00  0.00000000E+00
  0.00000000E+00  0.00000000E+00  0.00000000E+00
  0.00000000E+00  0.00000000E+00  0.00000000E+00
  0.00000000E+00  0.00000000E+00  0.00000000E+00
  0.00000000E+00  0.00000000E+00  0.00000000E+00
  0.00000000E+00  0.00000000E+00  0.00000000E+00
  0.00000000E+00  0.00000000E+00  0.00000000E+00
  0.00000000E+00  0.00000000E+00  0.00000000E+00
  0.00000000E+00  0.00000000E+00  0.00000000E+00
