Na1 B2 C6                               
   1.00000000000000     
     7.2644484575246668   -0.0045802166695410   -0.0248672388467631
     0.0003816577123671    3.9546970287976166   -0.8146805204687426
    -0.0771335183632224    0.0539688337997030   21.8627009966284263
   B    C    Na
     2     6     1
Direct
  0.1142859470072431  0.1569721998041965  0.4981083511954731
  0.8862409172862949  0.1574976687866488  0.4984925605263175
  0.5847052960131859  0.5210279812340509  0.5002380203752479
  0.1055579381602169  0.7705148484414041  0.4990010230112559
  0.7788841220544896  0.4884519661634348  0.4997347496654173
  0.8950095043619775  0.7709330514763362  0.4993327678462068
  0.4159383436317079  0.5205570627983735  0.4999134723129178
  0.2217283760997093  0.4876969888476195  0.4991719592498602
  0.0054265553851721  0.5888982324479359  0.5978090958173120
 
  0.00000000E+00  0.00000000E+00  0.00000000E+00
  0.00000000E+00  0.00000000E+00  0.00000000E+00
  0.00000000E+00  0.00000000E+00  0.00000000E+00
  0.00000000E+00  0.00000000E+00  0.00000000E+00
  0.00000000E+00  0.00000000E+00  0.00000000E+00
  0.00000000E+00  0.00000000E+00  0.00000000E+00
  0.00000000E+00  0.00000000E+00  0.00000000E+00
  0.00000000E+00  0.00000000E+00  0.00000000E+00
  0.00000000E+00  0.00000000E+00  0.00000000E+00
