Na1 B2 C6                               
   1.00000000000000     
     4.5434897984303610    0.1362639663099957   -0.1975395926315467
    -0.6694944218818066    7.1237482438828730   -0.9364726412153059
    -1.8262384888695866   -3.1986415602640323    9.1009815804113163
   B    C    Na
     2     6     1
Direct
  0.2471323799367462  0.8541351430980934  0.4765533410858691
  0.8036267807815028  0.1999838945094701  0.5297411305514659
  0.8972262898941539  0.7972294714406452  0.4579713329705917
  0.5679463676902594  0.7959575342251262  0.4594404691826516
  0.1533075653905529  0.2619377828373028  0.5464339978005699
  0.7610626083939368  0.9713762916682862  0.4855883661906330
  0.4817691286131550  0.2627595130818043  0.5466051595174896
  0.2891335022252289  0.0868509830059936  0.5204879130069497
 -0.1522496229255355  0.5715783861332783  0.5804982896937754
 
  0.00000000E+00  0.00000000E+00  0.00000000E+00
  0.00000000E+00  0.00000000E+00  0.00000000E+00
  0.00000000E+00  0.00000000E+00  0.00000000E+00
  0.00000000E+00  0.00000000E+00  0.00000000E+00
  0.00000000E+00  0.00000000E+00  0.00000000E+00
  0.00000000E+00  0.00000000E+00  0.00000000E+00
  0.00000000E+00  0.00000000E+00  0.00000000E+00
  0.00000000E+00  0.00000000E+00  0.00000000E+00
  0.00000000E+00  0.00000000E+00  0.00000000E+00
