Na1 B2 C6
1.0
7.186304 0.000000 0.000000
0.000000 4.034842 0.000000
0.000000 0.000000 22.060620
B C Na
2 6 1
direct
0.882406 0.148751 0.500000 B
0.117594 0.148751 0.500000 B
0.898291 0.765182 0.500000 C
0.777243 0.480861 0.500000 C
0.101709 0.765182 0.500000 C
0.222757 0.480861 0.500000 C
0.586857 0.505270 0.500000 C
0.413143 0.505270 0.500000 C
0.777243 0.480861 0.590659 Na
