Na1 B2 C6
1.0
3.984378 0.000000 0.000000
-0.104879 7.378328 0.000000
0.000000 0.000000 21.975685
B C Na
2 6 1
direct
0.790999 0.768907 0.500000 B
0.104543 0.099910 0.500000 B
0.782666 0.210961 0.500000 C
0.765522 0.399611 0.500000 C
0.496425 0.099362 0.500000 C
0.115105 0.889078 0.500000 C
0.771243 0.567480 0.500000 C
0.473497 0.898025 0.500000 C
0.639546 0.155161 0.591010 Na
