Na1 B2 C6                               
   1.00000000000000     
     7.2133706111891192   -0.0086502343861212   -0.5326468661626946
     0.0002540325213459    4.0606931594005333   -0.0380179537139241
    -1.6403531704080976   -0.2802858617104818   17.1599847512144414
   B    C    Na
     2     6     1
Direct
  0.8995655752074136  0.1525937660699105  0.5032321366966332
  0.1264686824009618  0.1527348779098329  0.5062959754673199
  0.9081418678651484  0.7638934449045705  0.5041471989411221
  0.7917258421717400  0.4804746769923492  0.5001578268162244
  0.1170350675477400  0.7643675759155327  0.5064898532752550
  0.2309721183408948  0.4819773798688498  0.5047617631059378
  0.5931709219160004  0.5157656520198217  0.4950912985359360
  0.4245872027171692  0.5161456844594119  0.5001257826458032
  0.5937057218329306  0.0252719418597232  0.5703571645157705
 
  0.00000000E+00  0.00000000E+00  0.00000000E+00
  0.00000000E+00  0.00000000E+00  0.00000000E+00
  0.00000000E+00  0.00000000E+00  0.00000000E+00
  0.00000000E+00  0.00000000E+00  0.00000000E+00
  0.00000000E+00  0.00000000E+00  0.00000000E+00
  0.00000000E+00  0.00000000E+00  0.00000000E+00
  0.00000000E+00  0.00000000E+00  0.00000000E+00
  0.00000000E+00  0.00000000E+00  0.00000000E+00
  0.00000000E+00  0.00000000E+00  0.00000000E+00
