Na1 B2 C6                               
   1.00000000000000     
     5.2056712151093194   -0.0005711393712294   -0.0862584470808358
    -0.0003421730063521    4.4398805138606905    0.0688736758721757
    -0.3466811136861573    0.3229771352786719   18.0508129440568581
   B    C    Na
     2     6     1
Direct
  0.7521690931222055  0.1567776047730130  0.4956638950632940
  0.2517524341369085  0.8380133014528388  0.4971664340246768
  0.7520312138391738  0.8112884927856112  0.5008525701802913
  0.9960634348413970  0.6572235638133421  0.4993629832021650
  0.0080783501813013  0.3386622334899603  0.4948001223393694
  0.4956922210439308  0.3379170345204454  0.4939735639619893
  0.5088721293436974  0.6583194093710572  0.4995563362283498
  0.2520037979549784  0.1846304167419701  0.4920979816516277
  0.3552513255364037  0.2825639430517643  0.6250411133482365
 
  0.00000000E+00  0.00000000E+00  0.00000000E+00
  0.00000000E+00  0.00000000E+00  0.00000000E+00
  0.00000000E+00  0.00000000E+00  0.00000000E+00
  0.00000000E+00  0.00000000E+00  0.00000000E+00
  0.00000000E+00  0.00000000E+00  0.00000000E+00
  0.00000000E+00  0.00000000E+00  0.00000000E+00
  0.00000000E+00  0.00000000E+00  0.00000000E+00
  0.00000000E+00  0.00000000E+00  0.00000000E+00
  0.00000000E+00  0.00000000E+00  0.00000000E+00
