Na1 B2 C6                               
   1.00000000000000     
     4.5298787473284294   -0.0052341027642662    0.1696773829142671
    -0.7042085807406673    6.6966757063817894    0.1413006177904189
     0.5654301335378842    0.5956001300232888   16.4457786768628367
   B    C    Na
     2     6     1
Direct
  0.2260945958040093  0.8214138964344416  0.4806059586937699
  0.7702965910681610  0.1665797801017498  0.5155408487968360
  0.8781357557317496  0.7694234143766855  0.4892341343276334
  0.5517284678901080  0.7687760157725224  0.4894374949464799
  0.1191526027862088  0.2197999547031447  0.5042277391751389
  0.7359502302747187  0.9393608181753252  0.5067478838560914
  0.4439103002493032  0.2187907924822680  0.5050279641239522
  0.2612423490189679  0.0507595395977531  0.4855565248754181
  0.0803491071767714  0.9600197883561093  0.6269414512046768
 
  0.00000000E+00  0.00000000E+00  0.00000000E+00
  0.00000000E+00  0.00000000E+00  0.00000000E+00
  0.00000000E+00  0.00000000E+00  0.00000000E+00
  0.00000000E+00  0.00000000E+00  0.00000000E+00
  0.00000000E+00  0.00000000E+00  0.00000000E+00
  0.00000000E+00  0.00000000E+00  0.00000000E+00
  0.00000000E+00  0.00000000E+00  0.00000000E+00
  0.00000000E+00  0.00000000E+00  0.00000000E+00
  0.00000000E+00  0.00000000E+00  0.00000000E+00
