Na1 B2 C6                               
   1.00000000000000     
     6.9951392748487349   -0.0000000844777536   -0.0000002242357745
    -0.0000000505431143    3.6923418588358419    0.0303341246782442
    -0.0000007772413535    0.1795125353865423   19.0907846196741779
   B    C    Na
     2     6     1
Direct
  0.7499999857314400  0.8426980427137333  0.4940374477217814
  0.2499999855189050  0.1535318809099510  0.5017697246893250
  0.7499999771148894  0.2500286070471491  0.4920776873867491
  0.2499999705447446  0.7427329513901897  0.5029450667646507
  0.4008807627473758  0.4709903088730188  0.5006118218813508
  0.0991192495338078  0.4709903527471693  0.5006118390878980
  0.5988518412070298  0.5269274807401898  0.4947714657156806
  0.9011481666717583  0.5269275062726042  0.4947714420277291
  0.7500000609300490  0.2784248693059966  0.6163155047248362
 
  0.00000000E+00  0.00000000E+00  0.00000000E+00
  0.00000000E+00  0.00000000E+00  0.00000000E+00
  0.00000000E+00  0.00000000E+00  0.00000000E+00
  0.00000000E+00  0.00000000E+00  0.00000000E+00
  0.00000000E+00  0.00000000E+00  0.00000000E+00
  0.00000000E+00  0.00000000E+00  0.00000000E+00
  0.00000000E+00  0.00000000E+00  0.00000000E+00
  0.00000000E+00  0.00000000E+00  0.00000000E+00
  0.00000000E+00  0.00000000E+00  0.00000000E+00
