Na1 B2 C6
1.0
5.162572 0.000000 0.000000
0.000000 4.476434 0.000000
0.000000 0.000000 20.301525
B C Na
2 6 1
direct
0.750000 0.159732 0.500000 B
0.250000 0.840268 0.500000 B
0.750000 0.810454 0.500000 C
0.993827 0.658753 0.500000 C
0.006173 0.341247 0.500000 C
0.493827 0.341247 0.500000 C
0.506173 0.658753 0.500000 C
0.250000 0.189546 0.500000 C
0.993827 0.658753 0.598515 Na
