Na1 B2 C6                               
   1.00000000000000     
     5.2778257323156206    0.1742554945210779   -0.4446110237183399
    -2.0610282019875865    7.4279507792316055    0.1344736672582440
    -2.7708758374140450   -1.7236918709015792   13.2673227954119000
   B    C    Na
     2     6     1
Direct
  0.4746298992779114  0.1892015716571418  0.5400823447870761
  0.2542786261915934  0.8087868882595514  0.5016525439279105
  0.4216321093628015  0.6742512059096625  0.5337258943850798
  0.2838712102965225  0.0025932200421400  0.5041789395588104
  0.1507795135093231  0.1397616561972449  0.4764854517862356
  0.2829698849244276  0.4900903852770607  0.5055234604038294
  0.3071108159193602  0.3187160653702510  0.5071996525214201
  0.1235097195163091  0.6121600263421296  0.4758060330245867
 -0.1956517789982420 -0.0473460190551746  0.5446726796050483
 
  0.00000000E+00  0.00000000E+00  0.00000000E+00
  0.00000000E+00  0.00000000E+00  0.00000000E+00
  0.00000000E+00  0.00000000E+00  0.00000000E+00
  0.00000000E+00  0.00000000E+00  0.00000000E+00
  0.00000000E+00  0.00000000E+00  0.00000000E+00
  0.00000000E+00  0.00000000E+00  0.00000000E+00
  0.00000000E+00  0.00000000E+00  0.00000000E+00
  0.00000000E+00  0.00000000E+00  0.00000000E+00
  0.00000000E+00  0.00000000E+00  0.00000000E+00
