Na1 B2 C6                               
   1.00000000000000     
     5.9686795658553544    0.0686081506433554    0.0055072033022013
    -2.6770513570038146    7.2362735108743150   -0.2572915693599671
     0.1992095293730361   -0.8986080935249608   14.5018806302986096
   B    C    Na
     2     6     1
Direct
  0.4019990535807794  0.1952156749799727  0.5121196993140058
  0.2124833515695153  0.8035318350170453  0.5093641959026597
  0.3604086803309283  0.6777435301363111  0.5121081751702878
  0.2390429964450193  0.9985410914069912  0.5097049917378298
  0.1161898757913488  0.1270278559962575  0.5078996234839116
  0.2341608390812585  0.4854584380299478  0.5097180291106721
  0.2549565537389533  0.3159839184099665  0.5099250410211366
  0.0958345139608945  0.5993812302675320  0.5067507744754874
  0.6880541355013098 -0.0146685742440176  0.5117364697840076
 
  0.00000000E+00  0.00000000E+00  0.00000000E+00
  0.00000000E+00  0.00000000E+00  0.00000000E+00
  0.00000000E+00  0.00000000E+00  0.00000000E+00
  0.00000000E+00  0.00000000E+00  0.00000000E+00
  0.00000000E+00  0.00000000E+00  0.00000000E+00
  0.00000000E+00  0.00000000E+00  0.00000000E+00
  0.00000000E+00  0.00000000E+00  0.00000000E+00
  0.00000000E+00  0.00000000E+00  0.00000000E+00
  0.00000000E+00  0.00000000E+00  0.00000000E+00
