Na1 B2 C6                               
   1.00000000000000     
     6.9569139723234770    0.0007922215488022    0.0000035802473118
     0.0003936241839496    3.6993051953219873    0.0000006816078516
     0.0000104586179011    0.0000038521459369   18.9870065934757726
   B    C    Na
     2     6     1
Direct
  0.7500481749299902  0.8442571740260910  0.4983889272540335
  0.2499516246483096  0.1557427254389472  0.4983887033893539
  0.7503590712400663  0.2520918003659063  0.4986773187103534
  0.2496410859680150  0.7479082016766739  0.4986770963781264
  0.4004246315748003  0.4720079233318926  0.4900140998383716
  0.0999974847316239  0.4729571795998295  0.5054282646622427
  0.5995753898769486  0.5279915913097525  0.4900142667101661
  0.9000025382802471  0.5270431002269913  0.5054283878600704
  0.4999999987499988  0.5000003040239153  0.6128949351972826
 
  0.00000000E+00  0.00000000E+00  0.00000000E+00
  0.00000000E+00  0.00000000E+00  0.00000000E+00
  0.00000000E+00  0.00000000E+00  0.00000000E+00
  0.00000000E+00  0.00000000E+00  0.00000000E+00
  0.00000000E+00  0.00000000E+00  0.00000000E+00
  0.00000000E+00  0.00000000E+00  0.00000000E+00
  0.00000000E+00  0.00000000E+00  0.00000000E+00
  0.00000000E+00  0.00000000E+00  0.00000000E+00
  0.00000000E+00  0.00000000E+00  0.00000000E+00
