Na1 B2 C6                               
   1.00000000000000     
     5.2429894503811489    0.3740050684743462   -0.5571899673174620
    -1.9656187906906746    7.4386329630365893    0.5170167482686896
    -3.3538499752892648    1.4273476491947072    8.5599565227518681
   B    C    Na
     2     6     1
Direct
  0.4810299223810614  0.1326787911999177  0.5499532289115502
  0.2574679821417281  0.7782828548271459  0.4986939958719460
  0.4258553544230583  0.6190812596347349  0.5376682330146951
  0.2872921438688042  0.9684700871866737  0.5045129270736247
  0.1364282616293825  0.1211496470723021  0.4675407585300796
  0.2720264429943121  0.4545510954166329  0.5021298685628073
  0.2966310796415043  0.2811698815463219  0.5059078659992672
  0.1099421297956920  0.6001928644369695  0.4650257292023199
 -0.1837763168755397  0.8720255186793081  0.5578943928337060
 
  0.00000000E+00  0.00000000E+00  0.00000000E+00
  0.00000000E+00  0.00000000E+00  0.00000000E+00
  0.00000000E+00  0.00000000E+00  0.00000000E+00
  0.00000000E+00  0.00000000E+00  0.00000000E+00
  0.00000000E+00  0.00000000E+00  0.00000000E+00
  0.00000000E+00  0.00000000E+00  0.00000000E+00
  0.00000000E+00  0.00000000E+00  0.00000000E+00
  0.00000000E+00  0.00000000E+00  0.00000000E+00
  0.00000000E+00  0.00000000E+00  0.00000000E+00
