Na1 B2 C6                               
   1.00000000000000     
     7.2539240594254721    0.0098657279598392   -0.3676484060128438
     0.0057453357130692    4.0383230270382908    0.0349372832832336
    -1.2145455249548101    0.2047932123835607   20.0540308180992071
   B    C    Na
     2     6     1
Direct
  0.8928594775541324  0.1482005258263250  0.5007527423237442
  0.1186752835884231  0.1476293495796313  0.4957142441508463
  0.9011548486914226  0.7607086041459018  0.5008571079441178
  0.7855648738804255  0.4777306899399830  0.5021763528708196
  0.1104911389742628  0.7601284245240280  0.4964698445942088
  0.2261800116093921  0.4767122055269904  0.4946179220407246
  0.5909928954832356  0.5082865097917495  0.5007138144825579
  0.4207615887853379  0.5071931609635802  0.4960612859617647
  0.0629708814333682  0.4705045297018126  0.6032956856312193
 
  0.00000000E+00  0.00000000E+00  0.00000000E+00
  0.00000000E+00  0.00000000E+00  0.00000000E+00
  0.00000000E+00  0.00000000E+00  0.00000000E+00
  0.00000000E+00  0.00000000E+00  0.00000000E+00
  0.00000000E+00  0.00000000E+00  0.00000000E+00
  0.00000000E+00  0.00000000E+00  0.00000000E+00
  0.00000000E+00  0.00000000E+00  0.00000000E+00
  0.00000000E+00  0.00000000E+00  0.00000000E+00
  0.00000000E+00  0.00000000E+00  0.00000000E+00
