Na1 B2 C6
1.0
7.188466 0.000000 0.000000
0.000000 3.947805 -0.840555
0.000000 0.000000 22.305648
B C Na
2 6 1
direct
0.117273 0.160239 0.500340 B
0.882727 0.160239 0.500340 B
0.586865 0.516649 0.499935 C
0.101719 0.776074 0.499921 C
0.777056 0.491484 0.499803 C
0.898281 0.776074 0.499921 C
0.413135 0.516649 0.499935 C
0.222944 0.491484 0.499803 C
0.117273 0.265740 0.592013 Na
