Na1 B2 C6                               
   1.00000000000000     
     7.2073051411373115   -0.1077067363389917    0.6652471286326200
    -0.0404176495762726    4.0460780350030774    0.3603334663572103
     2.0109127542050693    2.3242618112219056   16.1622389251981424
   B    C    Na
     2     6     1
Direct
  0.8688939588406265  0.1090018843016893  0.5042422576530086
  0.0958156390566228  0.1207561435507282  0.5007370122811775
  0.8791511446278854  0.7202090732438904  0.5049259094233154
  0.7647177765309239  0.4359406837883804  0.5044086511387913
  0.0882047588245125  0.7299488417612198  0.5023014586326596
  0.2038552869224420  0.4521323630193013  0.4994354645362613
  0.5709339776267003  0.4734215046635080  0.5014634001762769
  0.4025630369564681  0.4867212642505184  0.4959563357938023
  0.3832904206138207  0.9072222414207675  0.5771885103647089
 
  0.00000000E+00  0.00000000E+00  0.00000000E+00
  0.00000000E+00  0.00000000E+00  0.00000000E+00
  0.00000000E+00  0.00000000E+00  0.00000000E+00
  0.00000000E+00  0.00000000E+00  0.00000000E+00
  0.00000000E+00  0.00000000E+00  0.00000000E+00
  0.00000000E+00  0.00000000E+00  0.00000000E+00
  0.00000000E+00  0.00000000E+00  0.00000000E+00
  0.00000000E+00  0.00000000E+00  0.00000000E+00
  0.00000000E+00  0.00000000E+00  0.00000000E+00
