Na1 B2 C6                               
   1.00000000000000     
     6.2791338047738599    0.0110210136927991   -0.1293221412314155
    -0.0219921218431236    6.2647054993814928   -0.0002234220959153
    -0.3626975683329279   -0.0021571245662655   16.2601023678161880
   B    C    Na
     2     6     1
Direct
  0.5018784601216734  0.1636714084192888  0.4916775083774531
  0.5015788775790142  0.8363975981460947  0.4916491928834343
  0.4983241178923751  0.5983769266054564  0.4727864234401415
  0.1041466116994608 -0.0000950198685550  0.5079792474676292
  0.4985493952234213  0.4016707066559922  0.4728100134399892
  0.9046852112210944  0.0001553269860641  0.5068221706970937
  0.3198352088848921 -0.0001315571271355  0.5067219680637016
  0.6885366005283133  0.0001973665060148  0.5034082072758573
  0.5434665168497528 -0.0000947563232097  0.6387482683546972
 
  0.00000000E+00  0.00000000E+00  0.00000000E+00
  0.00000000E+00  0.00000000E+00  0.00000000E+00
  0.00000000E+00  0.00000000E+00  0.00000000E+00
  0.00000000E+00  0.00000000E+00  0.00000000E+00
  0.00000000E+00  0.00000000E+00  0.00000000E+00
  0.00000000E+00  0.00000000E+00  0.00000000E+00
  0.00000000E+00  0.00000000E+00  0.00000000E+00
  0.00000000E+00  0.00000000E+00  0.00000000E+00
  0.00000000E+00  0.00000000E+00  0.00000000E+00
