Na1 B2 C6
1.0
7.055250 0.000000 0.000000
0.000000 3.667992 0.000000
0.000000 0.000000 20.426514
B C Na
2 6 1
direct
0.750000 0.843213 0.500000 B
0.250000 0.156787 0.500000 B
0.750000 0.263252 0.500000 C
0.250000 0.736748 0.500000 C
0.402245 0.471674 0.500000 C
0.097755 0.471674 0.500000 C
0.597755 0.528326 0.500000 C
0.902245 0.528326 0.500000 C
0.750000 0.053233 0.597912 Na
