Na1 B2 C6                               
   1.00000000000000     
     5.8731583513251922    0.0568229789912120    0.0198863499593003
    -2.6079684578823521    7.2671191120869087    0.0528725564129728
     0.1225918248800795    0.2163074895625683   16.8390461089609254
   B    C    Na
     2     6     1
Direct
  0.4026121430382419  0.1825739735883722  0.5106557197449021
  0.2107134754252172  0.7927270353064290  0.5078924427028338
  0.3603618660733550  0.6656101874254761  0.5108913509715939
  0.2367662720044162  0.9874598934776186  0.5087254896656493
  0.1136865232068799  0.1176665110174350  0.5056754251142513
  0.2339563202389796  0.4749407109224175  0.5074637425623102
  0.2543381676074744  0.3050963083179046  0.5079766618663997
  0.0930875276687899  0.5907276201878924  0.5038944092794728
  0.6871067047366484  0.9718747597564581  0.5261517580925837
 
  0.00000000E+00  0.00000000E+00  0.00000000E+00
  0.00000000E+00  0.00000000E+00  0.00000000E+00
  0.00000000E+00  0.00000000E+00  0.00000000E+00
  0.00000000E+00  0.00000000E+00  0.00000000E+00
  0.00000000E+00  0.00000000E+00  0.00000000E+00
  0.00000000E+00  0.00000000E+00  0.00000000E+00
  0.00000000E+00  0.00000000E+00  0.00000000E+00
  0.00000000E+00  0.00000000E+00  0.00000000E+00
  0.00000000E+00  0.00000000E+00  0.00000000E+00
