Na1 B2 C6                               
   1.00000000000000     
     7.2093662540101402   -0.1056194994827988   -0.7094065374501787
     0.0276616586966398    4.0101031779034466   -0.6360790949781824
    -2.4640068126863781    0.0833126198011681   16.4989669981960247
   B    C    Na
     2     6     1
Direct
  0.1276640758824367  0.1460599294312573  0.5030629594954564
  0.9007395306254767  0.1476543025431195  0.4999341723745813
  0.5950874482197172  0.5077357598416625  0.4977858668672068
  0.1181448025371489  0.7577255157549654  0.5040438503459619
  0.7933186477323636  0.4767267513100719  0.4998526774676803
  0.9092039936649249  0.7602992401740333  0.5017789348206844
  0.4277071900178273  0.5083959572731411  0.5031285458532282
  0.2324472065414355  0.4753037145225289  0.5042257180225933
  0.6304831047786723  0.0529358291492192  0.5779962747526129
 
  0.00000000E+00  0.00000000E+00  0.00000000E+00
  0.00000000E+00  0.00000000E+00  0.00000000E+00
  0.00000000E+00  0.00000000E+00  0.00000000E+00
  0.00000000E+00  0.00000000E+00  0.00000000E+00
  0.00000000E+00  0.00000000E+00  0.00000000E+00
  0.00000000E+00  0.00000000E+00  0.00000000E+00
  0.00000000E+00  0.00000000E+00  0.00000000E+00
  0.00000000E+00  0.00000000E+00  0.00000000E+00
  0.00000000E+00  0.00000000E+00  0.00000000E+00
