Na1 B2 C6                               
   1.00000000000000     
     5.2481422257594916    0.4226845332038625   -0.0022825970302702
    -1.9293039487905546    7.4500617192240561    0.4259730143213422
     2.3718030845003319    3.2389989395859109    8.6567685518528865
   B    C    Na
     2     6     1
Direct
  0.3909308263157859  0.1579488216255874  0.4602050845012125
  0.1755984362896276  0.7678670013365737  0.5154285708375834
  0.3399845219768847  0.6351143019423262  0.4789700328603503
  0.2027992169387119  0.9617242287963162  0.5102612641049191
  0.0594889567139759  0.0886696292239085  0.5511070702333503
  0.1924532836737023  0.4453985189495592  0.5168046066682831
  0.2165552516599242  0.2753655735614373  0.5113129956809600
  0.0326957088879813  0.5651734834483394  0.5532295447047302
  0.6991717975434120  0.9021764411159536  0.4920078304086088
 
  0.00000000E+00  0.00000000E+00  0.00000000E+00
  0.00000000E+00  0.00000000E+00  0.00000000E+00
  0.00000000E+00  0.00000000E+00  0.00000000E+00
  0.00000000E+00  0.00000000E+00  0.00000000E+00
  0.00000000E+00  0.00000000E+00  0.00000000E+00
  0.00000000E+00  0.00000000E+00  0.00000000E+00
  0.00000000E+00  0.00000000E+00  0.00000000E+00
  0.00000000E+00  0.00000000E+00  0.00000000E+00
  0.00000000E+00  0.00000000E+00  0.00000000E+00
