Na1 B2 C6                               
   1.00000000000000     
     7.0357700646228478    0.0695518370220484    0.3038977647455433
     0.0154039756114398    3.6893047546338589   -0.2783528443250338
     0.8606927186477700   -2.3885827856247324   12.0160425503738999
   B    C    Na
     2     6     1
Direct
  0.7407159830424163  0.8653902224726143  0.4923696666912626
  0.2500287165644154  0.1846111174119026  0.4943408204815108
  0.7427772685884650  0.2754589813387233  0.4948021737345599
  0.2467741545905949  0.7788419562736945  0.4968546829353677
  0.3955828555319250  0.5020137664175547  0.4963345021239601
  0.0938957319408081  0.5016077164798121  0.4954934205773120
  0.5941015923170091  0.5527968752562331  0.4951214945582180
  0.8960873742643450  0.5508078911349898  0.4941859452428975
  0.9639143231600230  0.1559344732144765  0.6384092936549121
 
  0.00000000E+00  0.00000000E+00  0.00000000E+00
  0.00000000E+00  0.00000000E+00  0.00000000E+00
  0.00000000E+00  0.00000000E+00  0.00000000E+00
  0.00000000E+00  0.00000000E+00  0.00000000E+00
  0.00000000E+00  0.00000000E+00  0.00000000E+00
  0.00000000E+00  0.00000000E+00  0.00000000E+00
  0.00000000E+00  0.00000000E+00  0.00000000E+00
  0.00000000E+00  0.00000000E+00  0.00000000E+00
  0.00000000E+00  0.00000000E+00  0.00000000E+00
