Na1 B2 C6                               
   1.00000000000000     
     7.2222440289516054    0.1468593517200297    0.5769132341613890
     0.0053399107796498    3.8847433574503722   -1.1680133775524550
     1.8808124504015675   -3.0962208214374152   18.0015313086567730
   B    C    Na
     2     6     1
Direct
  0.0982662348888483  0.1887186303558869  0.4999931997486077
  0.8717287777624602  0.1932400532286471  0.5034592094766949
  0.5717224393592106  0.5543576319643383  0.5033455008950777
  0.0900895840178903  0.8026076676523374  0.5014856687617389
  0.7668056253839358  0.5245039361366249  0.5044861589573585
  0.8811719076710216  0.8059922405272881  0.5041133735593886
  0.4036636316203172  0.5430453218454875  0.4973402408927926
  0.2059833187670854  0.5152784594389181  0.4993632417518629
  0.3757724805292286  0.2050930588504702  0.5782224059564834
 
  0.00000000E+00  0.00000000E+00  0.00000000E+00
  0.00000000E+00  0.00000000E+00  0.00000000E+00
  0.00000000E+00  0.00000000E+00  0.00000000E+00
  0.00000000E+00  0.00000000E+00  0.00000000E+00
  0.00000000E+00  0.00000000E+00  0.00000000E+00
  0.00000000E+00  0.00000000E+00  0.00000000E+00
  0.00000000E+00  0.00000000E+00  0.00000000E+00
  0.00000000E+00  0.00000000E+00  0.00000000E+00
  0.00000000E+00  0.00000000E+00  0.00000000E+00
