Na1 B2 C6
1.0
4.084040 0.000000 0.000000
-0.334546 6.092785 0.000000
0.000000 0.000000 22.334592
B C Na
2 6 1
direct
0.309173 0.246552 0.500000 B
0.690827 0.753448 0.500000 B
0.671978 0.013603 0.500000 C
0.999571 0.617510 0.500000 C
0.703973 0.251179 0.500000 C
0.328022 0.986397 0.500000 C
0.000429 0.382490 0.500000 C
0.296027 0.748821 0.500000 C
0.000000 1.000000 0.589547 Na
