Na1 B2 C6                               
   1.00000000000000     
     4.5143651195165182    0.0013598994578074    0.0011837383037411
    -0.7124116476713365    6.6646762479553905    0.2091373766699206
     0.0049071207806929    0.6194368273834808   17.5120951054424445
   B    C    Na
     2     6     1
Direct
  0.2214293841964533  0.8174292766051582  0.4952405644634426
  0.7779572207832556  0.1772330480606676  0.5055606770428444
  0.8770363656563961  0.7687223376165578  0.5055298817918633
  0.5504702276169193  0.7685426259468010  0.5056750213709283
  0.1211581277133477  0.2245262735100267  0.4875571388570970
  0.7413907068743778  0.9444810585061970  0.5119500427931875
  0.4496686263077047  0.2242636583136046  0.4875833552516766
  0.2576938201321110  0.0484435032618545  0.4836570630149240
  0.2883385207194314  0.2480942181791330  0.6205662554140330
 
  0.00000000E+00  0.00000000E+00  0.00000000E+00
  0.00000000E+00  0.00000000E+00  0.00000000E+00
  0.00000000E+00  0.00000000E+00  0.00000000E+00
  0.00000000E+00  0.00000000E+00  0.00000000E+00
  0.00000000E+00  0.00000000E+00  0.00000000E+00
  0.00000000E+00  0.00000000E+00  0.00000000E+00
  0.00000000E+00  0.00000000E+00  0.00000000E+00
  0.00000000E+00  0.00000000E+00  0.00000000E+00
  0.00000000E+00  0.00000000E+00  0.00000000E+00
