Na1 B2 C6                               
   1.00000000000000     
     7.2804014482976944    0.0000007550835413    0.0000053810558310
     0.0000002650295368    4.0216685540461503   -0.3560006898539028
     0.0000151018504274   -2.2739352337235506   15.7440423469060580
   B    C    Na
     2     6     1
Direct
  0.8861395138279712  0.1666426156638244  0.4932696320822451
  0.1138602111566837  0.1666426394962170  0.4932694016116156
  0.8945080783225899  0.7798021694057524  0.4946596000523923
  0.7787284451005954  0.4977747912341337  0.4953154946114783
  0.1054918201111606  0.7798010345540932  0.4946593877495532
  0.2212724496629450  0.4977753443471054  0.4953151309796453
  0.5844291963854266  0.5295327546614228  0.4966375510221643
  0.4155699109148495  0.5295324560369499  0.4966372847672896
  0.0000003745177784  0.6178061946005047  0.6308955171236180
 
  0.00000000E+00  0.00000000E+00  0.00000000E+00
  0.00000000E+00  0.00000000E+00  0.00000000E+00
  0.00000000E+00  0.00000000E+00  0.00000000E+00
  0.00000000E+00  0.00000000E+00  0.00000000E+00
  0.00000000E+00  0.00000000E+00  0.00000000E+00
  0.00000000E+00  0.00000000E+00  0.00000000E+00
  0.00000000E+00  0.00000000E+00  0.00000000E+00
  0.00000000E+00  0.00000000E+00  0.00000000E+00
  0.00000000E+00  0.00000000E+00  0.00000000E+00
