Na1 B2 C6                               
   1.00000000000000     
     7.0082201495335124    0.0000001246669191    0.0000018087506275
     0.0000000701794687    3.6917635810051990   -0.0595543062815724
     0.0000057454709245   -0.3450725134382764   18.6684690059253207
   B    C    Na
     2     6     1
Direct
  0.7499999855849234  0.8464709047224031  0.4941018836493983
  0.2499999909623110  0.1600085031888144  0.5005937182266900
  0.7500000113260806  0.2537887056621185  0.4940058277248560
  0.2499999953373616  0.7489656661014246  0.5010786603677240
  0.4008230818812000  0.4773502819553078  0.4993398423687105
  0.0991768832374929  0.4773503994695299  0.4993399527078778
  0.5988345049812298  0.5307587760029778  0.4947924752514145
  0.9011655351924122  0.5307588241551391  0.4947924858084034
  0.7500000114969879  0.5277809387422835  0.6198671538949262
 
  0.00000000E+00  0.00000000E+00  0.00000000E+00
  0.00000000E+00  0.00000000E+00  0.00000000E+00
  0.00000000E+00  0.00000000E+00  0.00000000E+00
  0.00000000E+00  0.00000000E+00  0.00000000E+00
  0.00000000E+00  0.00000000E+00  0.00000000E+00
  0.00000000E+00  0.00000000E+00  0.00000000E+00
  0.00000000E+00  0.00000000E+00  0.00000000E+00
  0.00000000E+00  0.00000000E+00  0.00000000E+00
  0.00000000E+00  0.00000000E+00  0.00000000E+00
