Na1 B2 C6
1.0
5.437849 0.000000 0.000000
-2.470311 7.214185 0.000000
0.000000 0.000000 22.389685
B C Na
2 6 1
direct
0.429233 0.187983 0.500000 B
0.221598 0.796047 0.500000 B
0.376345 0.666104 0.500000 C
0.242600 0.995121 0.500000 C
0.096994 0.114640 0.500000 C
0.233102 0.475706 0.500000 C
0.255930 0.305245 0.500000 C
0.077531 0.592488 0.500000 C
0.831168 0.331845 0.589327 Na
