Na1 B2 C6                               
   1.00000000000000     
     7.2731394570486154    0.0232943037113783    0.2928080028054649
     0.0190511629420333    4.0225648830406202   -0.3731997840524579
     1.0883562950445789   -2.1409795651512833   13.5776542749373359
   B    C    Na
     2     6     1
Direct
  0.8823433913469266  0.1653636135928695  0.4886562213257606
  0.1085751264738716  0.1668329045200758  0.4928890501653325
  0.8897589264871544  0.7787486659757105  0.4902592168273182
  0.7738504690771247  0.4964264837891876  0.4899772669764529
  0.1000452091969650  0.7793692316292700  0.4937971138341560
  0.2154169328765416  0.4983014300885154  0.4961888078723859
  0.5787650284541010  0.5294326138062385  0.4924121569734741
  0.4097569511095405  0.5293764370110835  0.4960680714797913
  0.9397789649777750  0.6214586195870531  0.6504110945453307
 
  0.00000000E+00  0.00000000E+00  0.00000000E+00
  0.00000000E+00  0.00000000E+00  0.00000000E+00
  0.00000000E+00  0.00000000E+00  0.00000000E+00
  0.00000000E+00  0.00000000E+00  0.00000000E+00
  0.00000000E+00  0.00000000E+00  0.00000000E+00
  0.00000000E+00  0.00000000E+00  0.00000000E+00
  0.00000000E+00  0.00000000E+00  0.00000000E+00
  0.00000000E+00  0.00000000E+00  0.00000000E+00
  0.00000000E+00  0.00000000E+00  0.00000000E+00
