Na1 B2 C6                               
   1.00000000000000     
     7.2091847668694840    0.1174611580771139    0.5246111235285459
    -0.0025351953299341    3.9709974089036213   -0.8805442552417765
     1.6488727094511713   -1.3086275095023534   17.5941156883421108
   B    C    Na
     2     6     1
Direct
  0.0998228995071428  0.1684203846062694  0.5036403782509989
  0.8729224898217370  0.1713530960910785  0.5067096591641133
  0.5752874004901439  0.5266152856840606  0.4999321230683247
  0.0912789231596435  0.7806346610460282  0.5043822059135741
  0.7688758772973097  0.4993222307725333  0.5049063645304566
  0.8823105633660048  0.7835701287123132  0.5068340598058099
  0.4061874644903814  0.5197452137064049  0.4946296639231828
  0.2074496102596040  0.4924145468410954  0.5001763452500452
  0.4103787716080358  0.1168304525402162  0.5705302000934993
 
  0.00000000E+00  0.00000000E+00  0.00000000E+00
  0.00000000E+00  0.00000000E+00  0.00000000E+00
  0.00000000E+00  0.00000000E+00  0.00000000E+00
  0.00000000E+00  0.00000000E+00  0.00000000E+00
  0.00000000E+00  0.00000000E+00  0.00000000E+00
  0.00000000E+00  0.00000000E+00  0.00000000E+00
  0.00000000E+00  0.00000000E+00  0.00000000E+00
  0.00000000E+00  0.00000000E+00  0.00000000E+00
  0.00000000E+00  0.00000000E+00  0.00000000E+00
