Na1 B2 C6                               
   1.00000000000000     
     7.2428782767275717    0.0121600993985320    0.0380986610775697
     0.0021899667043330    3.9423071324109302   -0.8131222114270890
     0.1247929865363578   -0.1370811792356474   20.9012285736913661
   B    C    Na
     2     6     1
Direct
  0.1124343468834926  0.1492938755297011  0.4906394474182207
  0.8855076013106179  0.1570435233133671  0.4969402504802185
  0.5843063640511632  0.5242569417445241  0.5031126052260430
  0.1030253713461457  0.7667251906357843  0.4960466362841491
  0.7783766376342292  0.4904999437290702  0.5016409158117725
  0.8948622175672516  0.7703303139020086  0.4993529021472235
  0.4147456142926600  0.5202948400852789  0.5003426383729139
  0.2210649343035844  0.4821444543428807  0.4960932951965269
  0.1229499126108528  0.2940429167173842  0.6078423090629387
 
  0.00000000E+00  0.00000000E+00  0.00000000E+00
  0.00000000E+00  0.00000000E+00  0.00000000E+00
  0.00000000E+00  0.00000000E+00  0.00000000E+00
  0.00000000E+00  0.00000000E+00  0.00000000E+00
  0.00000000E+00  0.00000000E+00  0.00000000E+00
  0.00000000E+00  0.00000000E+00  0.00000000E+00
  0.00000000E+00  0.00000000E+00  0.00000000E+00
  0.00000000E+00  0.00000000E+00  0.00000000E+00
  0.00000000E+00  0.00000000E+00  0.00000000E+00
