Na1 B2 C6                               
   1.00000000000000     
     6.2757649457172873    0.0181645043368939    0.0000007526154945
    -0.0146584919614479    6.2941392208868185    0.0000040086313142
     0.0000047556733795    0.0000131053174955   17.3946078458479363
   B    C    Na
     2     6     1
Direct
  0.4999440168798847  0.1639179662886616  0.4925796358198000
  0.5000559532853216  0.8360818283370711  0.4925799190945184
  0.5000705016846098  0.5978321040383577  0.4776020103636409
  0.1000424379046355  0.0000968314004375  0.5069189548137247
  0.4999291855698441  0.4021677930808554  0.4776016674426119
  0.8999576046129050 -0.0000968238408249  0.5069189754526429
  0.3158176927603800  0.0000757393445065  0.5043834301200730
  0.6841822933179730 -0.0000758570330095  0.5043834070335433
  0.5000003139844461  0.0000004183839518  0.6296349998594416
 
  0.00000000E+00  0.00000000E+00  0.00000000E+00
  0.00000000E+00  0.00000000E+00  0.00000000E+00
  0.00000000E+00  0.00000000E+00  0.00000000E+00
  0.00000000E+00  0.00000000E+00  0.00000000E+00
  0.00000000E+00  0.00000000E+00  0.00000000E+00
  0.00000000E+00  0.00000000E+00  0.00000000E+00
  0.00000000E+00  0.00000000E+00  0.00000000E+00
  0.00000000E+00  0.00000000E+00  0.00000000E+00
  0.00000000E+00  0.00000000E+00  0.00000000E+00
