Na1 B2 C6                               
   1.00000000000000     
     5.8898482447663136   -0.4779312468329941    0.5319802620053724
    -3.2772975832383500    6.9441369966667317    0.7325759409515324
     2.3353904792495928    4.4311610189385000   10.7890607670025105
   B    C    Na
     2     6     1
Direct
  0.3524758692898096  0.1576657922263260  0.5261252631930752
  0.1780927125127105  0.7668486801578788  0.4974212895006550
  0.3031055242908919  0.6362814782951555  0.5250236451216640
  0.2019247293610889  0.9621602203887372  0.5008249335683512
  0.1003022214654456  0.0946905609877513  0.4819420742863685
  0.2048663304940121  0.4519484677444790  0.5002470726253021
  0.2220639835628567  0.2808338824301120  0.5041964197950399
  0.0856956256756333  0.5703826558119810  0.4743381035353442
  0.5837780033475549  0.9435982619575857  0.5792081983741961
 
  0.00000000E+00  0.00000000E+00  0.00000000E+00
  0.00000000E+00  0.00000000E+00  0.00000000E+00
  0.00000000E+00  0.00000000E+00  0.00000000E+00
  0.00000000E+00  0.00000000E+00  0.00000000E+00
  0.00000000E+00  0.00000000E+00  0.00000000E+00
  0.00000000E+00  0.00000000E+00  0.00000000E+00
  0.00000000E+00  0.00000000E+00  0.00000000E+00
  0.00000000E+00  0.00000000E+00  0.00000000E+00
  0.00000000E+00  0.00000000E+00  0.00000000E+00
