Na1 B2 C6                               
   1.00000000000000     
     7.0427989532788313   -0.0337814918672708   -0.0000007776837768
    -0.0179560109861686    3.6999651172093464    0.0000003615920486
    -0.0000021053326753    0.0000022448450615   18.8176861580104564
   B    C    Na
     2     6     1
Direct
  0.7551303067141822  0.8414079021284947  0.5001163512718304
  0.2448696256921261  0.1585933180035105  0.5001162885564964
  0.7523147116255933  0.2497522050686108  0.5015908186695980
  0.2476852819611886  0.7502462450339259  0.5015907737896820
  0.4009181936111744  0.4749071972619640  0.5017704944522945
  0.0993299656692994  0.4743016433169528  0.5007818885231469
  0.5990815656287164  0.5250930460343168  0.5017705378546741
  0.9006703597633270  0.5256985032122504  0.5007819127137723
  0.4999999893343935 -0.0000000600600257  0.5893929341685066
 
  0.00000000E+00  0.00000000E+00  0.00000000E+00
  0.00000000E+00  0.00000000E+00  0.00000000E+00
  0.00000000E+00  0.00000000E+00  0.00000000E+00
  0.00000000E+00  0.00000000E+00  0.00000000E+00
  0.00000000E+00  0.00000000E+00  0.00000000E+00
  0.00000000E+00  0.00000000E+00  0.00000000E+00
  0.00000000E+00  0.00000000E+00  0.00000000E+00
  0.00000000E+00  0.00000000E+00  0.00000000E+00
  0.00000000E+00  0.00000000E+00  0.00000000E+00
