Na1 B2 C6                               
   1.00000000000000     
     5.7491003773315530   -0.0951675311574689   -0.3190209823617955
    -2.8616507928347903    7.0926053356933618   -1.0596086706467349
    -2.2032856351281143   -3.8907322365088959   11.4412606543875128
   B    C    Na
     2     6     1
Direct
  0.4553942643922070  0.2452595625827803  0.5478440276905927
  0.2426195818534680  0.8135644320124201  0.4910468858785297
  0.4064370972962859  0.7200637651865097  0.5347392997839681
  0.2553319937180131  0.0082925209734639  0.4960954743525985
  0.1273903587042651  0.1149461735660395  0.4648473590844198
  0.2645170112002723  0.5004065380104394  0.4967788850237037
  0.2820828656064200  0.3321212559123649  0.5024572294794758
  0.1020202926972485  0.5797994015268860  0.4512825534737137
 -0.0471444654681766  0.3529773502291024  0.6042352852329967
 
  0.00000000E+00  0.00000000E+00  0.00000000E+00
  0.00000000E+00  0.00000000E+00  0.00000000E+00
  0.00000000E+00  0.00000000E+00  0.00000000E+00
  0.00000000E+00  0.00000000E+00  0.00000000E+00
  0.00000000E+00  0.00000000E+00  0.00000000E+00
  0.00000000E+00  0.00000000E+00  0.00000000E+00
  0.00000000E+00  0.00000000E+00  0.00000000E+00
  0.00000000E+00  0.00000000E+00  0.00000000E+00
  0.00000000E+00  0.00000000E+00  0.00000000E+00
