Na1 B2 C6                               
   1.00000000000000     
     4.5652865805036615    0.0764433702361859    0.0000013986679409
    -0.6197874499188186    7.4178991466580637    0.0000073248047750
     0.0000025261867504    0.0000342889935671   14.8716706846936209
   B    C    Na
     2     6     1
Direct
  0.2296978813670619  0.8428174152178869  0.5063367441946049
  0.7702999260203619  0.1571744424344000  0.5063365725885888
  0.8895258525603863  0.7935017263523827  0.5061218888372662
  0.5616557057589338  0.7972426846697755  0.5048637057790379
  0.1105012857969870  0.2064854428067749  0.5061222979160653
  0.7456813230566552  0.9525793066090367  0.5065209468734932
  0.4383120295583328  0.2027418481389875  0.5048640904512965
  0.2543256261070762  0.0474564813585552  0.5065215501234046
  0.5000003697742047  0.5000006524122006  0.5556322032362387
 
  0.00000000E+00  0.00000000E+00  0.00000000E+00
  0.00000000E+00  0.00000000E+00  0.00000000E+00
  0.00000000E+00  0.00000000E+00  0.00000000E+00
  0.00000000E+00  0.00000000E+00  0.00000000E+00
  0.00000000E+00  0.00000000E+00  0.00000000E+00
  0.00000000E+00  0.00000000E+00  0.00000000E+00
  0.00000000E+00  0.00000000E+00  0.00000000E+00
  0.00000000E+00  0.00000000E+00  0.00000000E+00
  0.00000000E+00  0.00000000E+00  0.00000000E+00
