Na1 B2 C6                               
   1.00000000000000     
     7.2220324859459586   -0.0158044386097509    0.0765346917218881
    -0.0088297691894647    4.0242761735938970    0.0022094888351093
     0.2434554444325528    0.0118482954378304   21.0550621578009078
   B    C    Na
     2     6     1
Direct
  0.8833810633473707  0.1475125707504991  0.5000188560665211
  0.1138346468008951  0.1494610623281037  0.5024984925654404
  0.8959555624601044  0.7604999870636731  0.5001079465005349
  0.7795322747828176  0.4763879951098750  0.4957434892973042
  0.1024693988833337  0.7616470878441313  0.5024350841628235
  0.2186341084758407  0.4799770817086514  0.5007136677623908
  0.5843711087955367  0.5118967348964389  0.4904016453024700
  0.4140460720855482  0.5131318270351669  0.4959334058020539
  0.5946327643685549  0.5048836532634643  0.6028064125404631
 
  0.00000000E+00  0.00000000E+00  0.00000000E+00
  0.00000000E+00  0.00000000E+00  0.00000000E+00
  0.00000000E+00  0.00000000E+00  0.00000000E+00
  0.00000000E+00  0.00000000E+00  0.00000000E+00
  0.00000000E+00  0.00000000E+00  0.00000000E+00
  0.00000000E+00  0.00000000E+00  0.00000000E+00
  0.00000000E+00  0.00000000E+00  0.00000000E+00
  0.00000000E+00  0.00000000E+00  0.00000000E+00
  0.00000000E+00  0.00000000E+00  0.00000000E+00
