Na1 B2 C6
1.0
6.216283 0.000000 0.000000
-0.033498 6.391575 0.000000
0.000000 0.000000 21.597550
B C Na
2 6 1
direct
0.500485 0.168488 0.500000 B
0.499515 0.831512 0.500000 B
0.499553 0.596455 0.500000 C
0.101273 0.999616 0.500000 C
0.500447 0.403545 0.500000 C
0.898727 0.000384 0.500000 C
0.316996 0.999557 0.500000 C
0.683004 0.000443 0.500000 C
0.833184 0.532152 0.592603 Na
