Na1 B2 C6                               
   1.00000000000000     
     6.1944257721639682    0.0260856562547514    0.9078534513577409
     0.0277976473858084    6.2802927961054049   -0.6538205212630281
     3.9834769705102535   -2.4092867587704085    9.4789754405574733
   B    C    Na
     2     6     1
Direct
  0.4633227584779601  0.1861048237282080  0.5093433992286657
  0.4615954703324928  0.8627763125353445  0.5084392775085238
  0.4782424353583019  0.6121893195389451  0.4899377629099399
  0.0548987619423116  0.0278211366330601  0.5192618552207197
  0.4814660238384193  0.4172963089377527  0.4907567186914675
  0.8536224617618613  0.0294922551945389  0.5190823103175212
  0.2703461866344137  0.0292506448215471  0.5189810598004311
  0.6379002337079738  0.0296099224631523  0.5190833596714836
  0.8898836679462677  0.6039082761474567  0.5177172566512437
 
  0.00000000E+00  0.00000000E+00  0.00000000E+00
  0.00000000E+00  0.00000000E+00  0.00000000E+00
  0.00000000E+00  0.00000000E+00  0.00000000E+00
  0.00000000E+00  0.00000000E+00  0.00000000E+00
  0.00000000E+00  0.00000000E+00  0.00000000E+00
  0.00000000E+00  0.00000000E+00  0.00000000E+00
  0.00000000E+00  0.00000000E+00  0.00000000E+00
  0.00000000E+00  0.00000000E+00  0.00000000E+00
  0.00000000E+00  0.00000000E+00  0.00000000E+00
