Na1 B2 C6                               
   1.00000000000000     
     5.1933910981047573    0.0040882287780282    0.1866877887591173
     0.0042441444105026    4.4629176670762218   -0.1490954961808074
     0.8160804337506170   -0.7487141347825110   18.0715680263201293
   B    C    Na
     2     6     1
Direct
  0.7439515119687683  0.1645403708865888  0.4964566869311797
  0.2437629604017942  0.8472320781373927  0.4972628248401605
  0.7431285296752488  0.8207691908701716  0.4997943327413698
  0.9870163575556068  0.6672841946595155  0.4992427334764336
  0.0001535039669797  0.3461313307639390  0.4961581506481026
  0.4880001537395898  0.3458298581935513  0.4959031141627526
  0.4992833723297665  0.6672556719843635  0.4989691110855890
  0.2446276794948226  0.1930280106905583  0.4950420578746166
  0.2146849308674225  0.5107852938139158  0.6196859882397944
 
  0.00000000E+00  0.00000000E+00  0.00000000E+00
  0.00000000E+00  0.00000000E+00  0.00000000E+00
  0.00000000E+00  0.00000000E+00  0.00000000E+00
  0.00000000E+00  0.00000000E+00  0.00000000E+00
  0.00000000E+00  0.00000000E+00  0.00000000E+00
  0.00000000E+00  0.00000000E+00  0.00000000E+00
  0.00000000E+00  0.00000000E+00  0.00000000E+00
  0.00000000E+00  0.00000000E+00  0.00000000E+00
  0.00000000E+00  0.00000000E+00  0.00000000E+00
