Na1 B2 C6                               
   1.00000000000000     
     7.2429695207172671   -0.0075128731095096   -0.0789248230779055
     0.0049674384744243    3.9369882729887418   -0.8510361966910596
    -0.2509881692079625   -0.1809690443106572   21.7364969806178472
   B    C    Na
     2     6     1
Direct
  0.1145932434626599  0.1557535582173300  0.4960640525591519
  0.8872358067747631  0.1629834786266427  0.5011150907907231
  0.5861494151814299  0.5239648494685765  0.5009792289174247
  0.1046166432735169  0.7670663769349275  0.4952056374909762
  0.7801375148025567  0.4936444898791867  0.5021131646395174
  0.8964071760100379  0.7738308524271355  0.5007607805200660
  0.4162022262476208  0.5175912917955835  0.4964527160802436
  0.2220229826493631  0.4807313298271600  0.4935533351789358
  0.1549669915980509  0.7526057728234568  0.6052899938229631
 
  0.00000000E+00  0.00000000E+00  0.00000000E+00
  0.00000000E+00  0.00000000E+00  0.00000000E+00
  0.00000000E+00  0.00000000E+00  0.00000000E+00
  0.00000000E+00  0.00000000E+00  0.00000000E+00
  0.00000000E+00  0.00000000E+00  0.00000000E+00
  0.00000000E+00  0.00000000E+00  0.00000000E+00
  0.00000000E+00  0.00000000E+00  0.00000000E+00
  0.00000000E+00  0.00000000E+00  0.00000000E+00
  0.00000000E+00  0.00000000E+00  0.00000000E+00
