Na1 B2 C6                               
   1.00000000000000     
     5.2075578282023152    0.0032613686861460   -0.0033707457236404
     0.0027401003068911    4.4533027664866198    0.1046477442215344
    -0.0170321070583357    0.6350700641827233   16.9820434918703427
   B    C    Na
     2     6     1
Direct
  0.7493017681108225  0.1511463031668349  0.4953335969144920
  0.2510142844562913  0.8317535576857122  0.4952265455325432
  0.7512625600316163  0.8049704045509261  0.4975926657887397
  0.9942945846368737  0.6515602084680260  0.4976657803604518
  0.0065661684718741  0.3304005467580990  0.4972125440161145
  0.4944377720771467  0.3327952675977024  0.4961875648670164
  0.5063313533381205  0.6496409083710595  0.4968376704503957
  0.2495594562432802  0.1771010214388740  0.4962879135776724
  0.9951740526339772  0.9568827819627670  0.6261707184925734
 
  0.00000000E+00  0.00000000E+00  0.00000000E+00
  0.00000000E+00  0.00000000E+00  0.00000000E+00
  0.00000000E+00  0.00000000E+00  0.00000000E+00
  0.00000000E+00  0.00000000E+00  0.00000000E+00
  0.00000000E+00  0.00000000E+00  0.00000000E+00
  0.00000000E+00  0.00000000E+00  0.00000000E+00
  0.00000000E+00  0.00000000E+00  0.00000000E+00
  0.00000000E+00  0.00000000E+00  0.00000000E+00
  0.00000000E+00  0.00000000E+00  0.00000000E+00
