Na1 B2 C6                               
   1.00000000000000     
     7.2440496299217738   -0.0047925448804259   -0.0743026032443449
    -0.0027559737754576    4.0259845681749820   -0.0166540338395001
    -0.2387231249307373   -0.0943952830636927   20.6078972078022247
   B    C    Na
     2     6     1
Direct
  0.8876097303124493  0.1505613038422547  0.4919917354823445
  0.1146725713560070  0.1510590857688401  0.4972417627191610
  0.8971094934495939  0.7607614332720535  0.4945084466361140
  0.7791173826722496  0.4773373862326220  0.4960044052809053
  0.1053509138269217  0.7617258755662949  0.4983533263544692
  0.2221514083257110  0.4799396708422070  0.5012847505950014
  0.5856573104731255  0.5121461788375595  0.5000383005202852
  0.4159641250454641  0.5130684949392261  0.5028122440418415
  0.8827150645384813  0.9504955706989419  0.6084240283698803
 
  0.00000000E+00  0.00000000E+00  0.00000000E+00
  0.00000000E+00  0.00000000E+00  0.00000000E+00
  0.00000000E+00  0.00000000E+00  0.00000000E+00
  0.00000000E+00  0.00000000E+00  0.00000000E+00
  0.00000000E+00  0.00000000E+00  0.00000000E+00
  0.00000000E+00  0.00000000E+00  0.00000000E+00
  0.00000000E+00  0.00000000E+00  0.00000000E+00
  0.00000000E+00  0.00000000E+00  0.00000000E+00
  0.00000000E+00  0.00000000E+00  0.00000000E+00
