Na1 B2 C6                               
   1.00000000000000     
     7.2221603542334085    0.0474839508306810    0.0674052522911458
     0.0180147368289759    3.9423272441724087   -0.8145814698280378
     0.2202186923582239   -0.2389893595511452   20.4685661009220041
   B    C    Na
     2     6     1
Direct
  0.1139089555021604  0.1521611468881577  0.4963704228590713
  0.8840186296683729  0.1634687335450110  0.5033376599087112
  0.5840895786358399  0.5247595574900340  0.4994488909203814
  0.1019252092519473  0.7657573860996274  0.4972619489779216
  0.7790926929191293  0.4954052343758806  0.5034798557535989
  0.8947798644022652  0.7751284219189899  0.5030922202070292
  0.4156248558053817  0.5114177538736885  0.4908301228059771
  0.2192698420701792  0.4748640790379165  0.4914824160215585
  0.3253303717447278  0.6354976867706963  0.6062374625457576
 
  0.00000000E+00  0.00000000E+00  0.00000000E+00
  0.00000000E+00  0.00000000E+00  0.00000000E+00
  0.00000000E+00  0.00000000E+00  0.00000000E+00
  0.00000000E+00  0.00000000E+00  0.00000000E+00
  0.00000000E+00  0.00000000E+00  0.00000000E+00
  0.00000000E+00  0.00000000E+00  0.00000000E+00
  0.00000000E+00  0.00000000E+00  0.00000000E+00
  0.00000000E+00  0.00000000E+00  0.00000000E+00
  0.00000000E+00  0.00000000E+00  0.00000000E+00
