Na1 B2 C6                               
   1.00000000000000     
     6.9806831729823084    0.0009399375835129    0.0445373809117853
     0.0004895816976560    3.6950552328607333    0.0120923677335935
     0.1352606302271624    0.0634909737313240   18.1897023145250998
   B    C    Na
     2     6     1
Direct
  0.7495200702552458  0.8420067388132134  0.5021794042381530
  0.2486137851694367  0.1564327968444895  0.4905691036247227
  0.7492362239061666  0.2525896614131256  0.5028264845401345
  0.2490903071909618  0.7499225898077941  0.4932495620259865
  0.4008811298612670  0.4726230853836086  0.4899182414022231
  0.0985748289939672  0.4725250943914007  0.4972846438348945
  0.5984601794593786  0.5254684666717612  0.4974190579386022
  0.8997353886452464  0.5250447568400261  0.5036389538733620
  0.3320110865183333  0.3176178098345804  0.6208265485219225
 
  0.00000000E+00  0.00000000E+00  0.00000000E+00
  0.00000000E+00  0.00000000E+00  0.00000000E+00
  0.00000000E+00  0.00000000E+00  0.00000000E+00
  0.00000000E+00  0.00000000E+00  0.00000000E+00
  0.00000000E+00  0.00000000E+00  0.00000000E+00
  0.00000000E+00  0.00000000E+00  0.00000000E+00
  0.00000000E+00  0.00000000E+00  0.00000000E+00
  0.00000000E+00  0.00000000E+00  0.00000000E+00
  0.00000000E+00  0.00000000E+00  0.00000000E+00
