ALGO=Normal
PREC=PREC
ISYM=1
ISMEAR=0
NEW=41
IBRION=2
LREAL=.FALSE.
NCORE=12
