Kpoints from vasprun.xml
0
MP
2 2 2
0 0 0
