E = -1                                  
   1.00000000000000     
     5.6451705023207168   -0.0076396357679538   -0.0084692825499592
     0.0073395709390642    5.2769995199029145    0.1293973929531659
     0.0047483690385883   -0.0794697723473813    3.2366513092483182
   Ga   N    O    Zn
     2     2     2     2
Direct
  0.9635007714742226  0.9365997984854143  0.8500482855547939
  0.1114994554858542  0.4365996874446372  0.3500458178380094
  0.1101966687598110  0.8048140926929405  0.3500278396270801
  0.9648033402389586  0.3048140242408101  0.8500256522956451
  0.6337301109786573  0.8247659032555975  0.8499527474448048
  0.4412695802436706  0.3247665089804210  0.3499492722387214
  0.4428761185716543  0.9338199426827196  0.3499774953414758
  0.6321239542471826  0.4338200422174455  0.8499728896594523
 
  0.00000000E+00  0.00000000E+00  0.00000000E+00
  0.00000000E+00  0.00000000E+00  0.00000000E+00
  0.00000000E+00  0.00000000E+00  0.00000000E+00
  0.00000000E+00  0.00000000E+00  0.00000000E+00
  0.00000000E+00  0.00000000E+00  0.00000000E+00
  0.00000000E+00  0.00000000E+00  0.00000000E+00
  0.00000000E+00  0.00000000E+00  0.00000000E+00
  0.00000000E+00  0.00000000E+00  0.00000000E+00
