E = -1                                  
   1.00000000000000     
     3.1880447452865699    0.0845216823465961    0.6108695404896373
     0.0657673179267289    5.5339529208966214   -1.1060154664131929
     0.5593048043066537   -1.6423399364720654    5.9321255733958695
   Ga   N    O    Zn
     2     2     2     2
Direct
  0.2289513262445822  0.5561543433764983  0.8296051559424007
  0.4869248701102293  0.6433266247318984  0.3137206924874040
  0.7888415716082350  0.3572460880975806  0.7097977449396229
  0.0418919507890288  0.7446856507772495  0.2036850894884003
  0.2988000872313404  0.8170935453270693  0.6899482802187999
  0.5432260713210119  0.2632223321024439  0.2008718352150637
  0.9757513093763412  0.1444414513093469  0.3359567687650671
  0.7356128133192391  0.0738299642779148  0.8164144329432350
 
  0.00000000E+00  0.00000000E+00  0.00000000E+00
  0.00000000E+00  0.00000000E+00  0.00000000E+00
  0.00000000E+00  0.00000000E+00  0.00000000E+00
  0.00000000E+00  0.00000000E+00  0.00000000E+00
  0.00000000E+00  0.00000000E+00  0.00000000E+00
  0.00000000E+00  0.00000000E+00  0.00000000E+00
  0.00000000E+00  0.00000000E+00  0.00000000E+00
  0.00000000E+00  0.00000000E+00  0.00000000E+00
