E = -1                                  
   1.00000000000000     
     3.9489855876630791    0.3873829994717494    0.3008434936615547
     0.3982404037688242    5.4871473256959336    0.0901469218558118
     0.3699345283944865    0.0440035109721737    5.3138647921865108
   Ga   N    O    Zn
     2     2     2     2
Direct
  0.9179606058339882  0.9764429820367786  0.7987050365382593
  0.2159422313719151  0.5341264223136690  0.7776881555176636
  0.9539525933638958  0.2982574700789213  0.6388541521174945
  0.6344318380263605  0.4154448245574038  0.5482961033793469
  0.2145521559091849  0.5240634178783431  0.1294646458209339
  0.6031359152609373  0.9723947318500875  0.1020838483888433
  0.7021155174263474  0.6526678552977714  0.2673831921355014
  0.3579091428073662  0.2266022959870129  0.3375248661019807
 
  0.00000000E+00  0.00000000E+00  0.00000000E+00
  0.00000000E+00  0.00000000E+00  0.00000000E+00
  0.00000000E+00  0.00000000E+00  0.00000000E+00
  0.00000000E+00  0.00000000E+00  0.00000000E+00
  0.00000000E+00  0.00000000E+00  0.00000000E+00
  0.00000000E+00  0.00000000E+00  0.00000000E+00
  0.00000000E+00  0.00000000E+00  0.00000000E+00
  0.00000000E+00  0.00000000E+00  0.00000000E+00
