E = -1                                  
   1.00000000000000     
     4.3636856349387640    0.2631714944734518   -0.2349390826848440
     0.2600149246573301    4.5892153368983006   -0.1672345899835486
    -0.2570878199111978   -0.1495090691988638    5.1721138437709540
   Ga   N    O    Zn
     2     2     2     2
Direct
  0.7897867296385768  0.9305033151264673  0.7894374450803801
  0.3475814807982904  0.4916058108739778  0.8629260865937337
  0.9400371468705769  0.5252918844016542  0.6660695275950400
  0.7070999729170833  0.3229681943724163  0.6618648872435201
  0.8602018293977399  0.9719568174795397  0.1555998796875331
  0.3486098030359961  0.8803340172828091  0.7218376342716364
  0.5686350358319396  0.2857287871257156  0.2844713986622704
  0.1380480015097999  0.6916111733374141  0.3577931408658793
 
  0.00000000E+00  0.00000000E+00  0.00000000E+00
  0.00000000E+00  0.00000000E+00  0.00000000E+00
  0.00000000E+00  0.00000000E+00  0.00000000E+00
  0.00000000E+00  0.00000000E+00  0.00000000E+00
  0.00000000E+00  0.00000000E+00  0.00000000E+00
  0.00000000E+00  0.00000000E+00  0.00000000E+00
  0.00000000E+00  0.00000000E+00  0.00000000E+00
  0.00000000E+00  0.00000000E+00  0.00000000E+00
