E = -1                                  
   1.00000000000000     
     4.6047176614597118   -0.3648302952124635    0.2914755686306336
    -0.2920318262873356    4.6018940124863414   -0.2752667309312025
     0.2859955956306978   -0.3504502437619899    4.9693287673430948
   Ga   N    O    Zn
     2     2     2     2
Direct
  0.6885111006211669  0.9844718863737544  0.9115401672380611
  0.2878293224023392  0.4065374073571385  0.7229137762804898
  0.8779775767280431  0.4087381004740196  0.8848377877207861
  0.7156880336918399  0.5675598061263445  0.7316467922279595
  0.3388999616903621  0.0048608064670533  0.7359569121955015
  0.2669707263833236  0.4563890525075245  0.3534294643294434
  0.8563201631693907  0.4958174601359412  0.3069277142547627
  0.4678031153135346  0.8756254805582196  0.3527473857529748
 
  0.00000000E+00  0.00000000E+00  0.00000000E+00
  0.00000000E+00  0.00000000E+00  0.00000000E+00
  0.00000000E+00  0.00000000E+00  0.00000000E+00
  0.00000000E+00  0.00000000E+00  0.00000000E+00
  0.00000000E+00  0.00000000E+00  0.00000000E+00
  0.00000000E+00  0.00000000E+00  0.00000000E+00
  0.00000000E+00  0.00000000E+00  0.00000000E+00
  0.00000000E+00  0.00000000E+00  0.00000000E+00
