E = -1                                  
   1.00000000000000     
     5.5052615732556855   -0.0645782362778966    0.8650430476231542
     0.0355793076095273    3.2820244282738185    0.0180049085239413
     0.8577570591253483   -0.0396989010811650    5.5468967416147397
   Ga   N    O    Zn
     2     2     2     2
Direct
  0.8457256180843434  0.8875216449842732  0.8171025499586115
  0.3608255401574061  0.3875167159288337  0.8367467305552828
  0.9724001979926928  0.8875148410006762  0.4687665691952805
  0.4786026248443763  0.8875188798450022  0.9568690328400624
  0.4664157421987708  0.3874662317568696  0.4813848591505207
  0.9819005606461759  0.3875168002276920  0.9472284607405905
  0.8540291370504147  0.3875087593958396  0.3556647635266754
  0.3401005790258169  0.8874361268608079  0.3362370340329638
 
  0.00000000E+00  0.00000000E+00  0.00000000E+00
  0.00000000E+00  0.00000000E+00  0.00000000E+00
  0.00000000E+00  0.00000000E+00  0.00000000E+00
  0.00000000E+00  0.00000000E+00  0.00000000E+00
  0.00000000E+00  0.00000000E+00  0.00000000E+00
  0.00000000E+00  0.00000000E+00  0.00000000E+00
  0.00000000E+00  0.00000000E+00  0.00000000E+00
  0.00000000E+00  0.00000000E+00  0.00000000E+00
