E = -1                                  
   1.00000000000000     
     7.0829679772843113   -0.4034775264566163   -0.7239248955879851
    -0.4715934779997988    2.9731806472202726   -0.0065827497920650
    -0.7105780058272820   -0.0955502816468423    6.8417177255472197
   Ga   N    O    Zn
     2     2     2     2
Direct
  0.7638564201381016  0.3009407669689320  0.1769961784474653
  0.6457265665721015  0.7414711820553450  0.7088229887550576
  0.2353234333367035  0.5146705156792888  0.7888148962861052
  0.0793588668279853  0.4280913923593581  0.7078703081938074
  0.6875434588266359  0.2622783444032770  0.8850512989983916
  0.0368063785700640  0.4380744792783114  0.2280259326378306
  0.2184636017809014  0.0288241052892065  0.2638239946944054
  0.5329212739475239  0.6856492139662744  0.3405944019869458
 
  0.00000000E+00  0.00000000E+00  0.00000000E+00
  0.00000000E+00  0.00000000E+00  0.00000000E+00
  0.00000000E+00  0.00000000E+00  0.00000000E+00
  0.00000000E+00  0.00000000E+00  0.00000000E+00
  0.00000000E+00  0.00000000E+00  0.00000000E+00
  0.00000000E+00  0.00000000E+00  0.00000000E+00
  0.00000000E+00  0.00000000E+00  0.00000000E+00
  0.00000000E+00  0.00000000E+00  0.00000000E+00
