E = -1                                  
   1.00000000000000     
     5.2258574103916704    0.9100882984580531   -0.4669955499196823
     0.8934223369434533    5.4267606683057377    1.2094139678270663
    -0.4056585969918671    1.3762266425230798    4.3382653252798802
   Ga   N    O    Zn
     2     2     2     2
Direct
  0.7042970670980830  0.0234350473266079  0.6532065118384641
  0.5901522386481627  0.3975852712520652  0.0165323496841610
  0.2458109287505412  0.6295221525699516  0.6113815151288000
  0.6496942088625108  0.7201122214521893  0.0438401438392757
  0.8717615179249830  0.2113479679527326  0.8638165421772509
  0.0990146431772913  0.8385148436315399  0.7072673533983558
  0.9531352254203964  0.5224897918823384  0.4734669957666295
  0.2861341701180156  0.8569927039325720  0.1304885881670425
 
  0.00000000E+00  0.00000000E+00  0.00000000E+00
  0.00000000E+00  0.00000000E+00  0.00000000E+00
  0.00000000E+00  0.00000000E+00  0.00000000E+00
  0.00000000E+00  0.00000000E+00  0.00000000E+00
  0.00000000E+00  0.00000000E+00  0.00000000E+00
  0.00000000E+00  0.00000000E+00  0.00000000E+00
  0.00000000E+00  0.00000000E+00  0.00000000E+00
  0.00000000E+00  0.00000000E+00  0.00000000E+00
