E = -1                                  
   1.00000000000000     
     4.7799299832541964   -0.3563969213197881   -0.3222678786251295
    -0.3350412316999266    4.8277871944058903    0.2705189488882634
    -0.3134710566412683    0.3741153785699536    4.6308070343949073
   Ga   N    O    Zn
     2     2     2     2
Direct
  0.7285141831722597  0.7244507595388942  0.6124337140346905
  0.1901591459503004  0.3373557882193439  0.7920595978960614
  0.7330126597332468  0.8839150706778054  0.1996339142096274
  0.8804875472101994  0.7283765777425154  0.0331179373956363
  0.3335994926875756  0.7059017302974204  0.6414482276069841
  0.8066666005463832  0.3446301439628203  0.5976793779879980
  0.8195702363519962  0.3047449931928099  0.1780159904925776
  0.3079901343480284  0.8706249363683954  0.0456112403764333
 
  0.00000000E+00  0.00000000E+00  0.00000000E+00
  0.00000000E+00  0.00000000E+00  0.00000000E+00
  0.00000000E+00  0.00000000E+00  0.00000000E+00
  0.00000000E+00  0.00000000E+00  0.00000000E+00
  0.00000000E+00  0.00000000E+00  0.00000000E+00
  0.00000000E+00  0.00000000E+00  0.00000000E+00
  0.00000000E+00  0.00000000E+00  0.00000000E+00
  0.00000000E+00  0.00000000E+00  0.00000000E+00
