E = -1                                  
   1.00000000000000     
     5.5031563302247353    0.0099192506961733   -0.8805215999060471
    -0.0053494451570542    3.2823044555167078    0.0040544669123821
    -0.8423422996953660   -0.0082952302764432    5.5492554982880167
   Ga   N    O    Zn
     2     2     2     2
Direct
  0.7457111430859517  0.8875100325794377  0.8953866489973378
  0.2608282885471405  0.3875037575191030  0.8757522518357581
  0.8723907489475276  0.8875296486416598  0.2437364046275393
  0.3785952995535688  0.8875048369169726  0.7556206406537348
  0.8819049026507575  0.3875057127449525  0.7652834770280351
  0.3664310102012990  0.3874736045215451  0.2311263118884079
  0.7540488569302828  0.3875260094556679  0.3568505792727142
  0.2400897500834581  0.8874463976206481  0.3762436856964587
 
  0.00000000E+00  0.00000000E+00  0.00000000E+00
  0.00000000E+00  0.00000000E+00  0.00000000E+00
  0.00000000E+00  0.00000000E+00  0.00000000E+00
  0.00000000E+00  0.00000000E+00  0.00000000E+00
  0.00000000E+00  0.00000000E+00  0.00000000E+00
  0.00000000E+00  0.00000000E+00  0.00000000E+00
  0.00000000E+00  0.00000000E+00  0.00000000E+00
  0.00000000E+00  0.00000000E+00  0.00000000E+00
