E = -1                                  
   1.00000000000000     
     4.5978434400926815    0.3165195357563435   -0.3088078351994559
     0.3372752770340286    4.6058425140476924   -0.3057732108587348
    -0.3133667741458316   -0.2748367718890906    4.9726122026974746
   Ga   N    O    Zn
     2     2     2     2
Direct
  0.7565932485537813  0.9121435928902165  0.6854381420676580
  0.3344628419862982  0.5114235390616791  0.8740235328188152
  0.9175647153775316  0.4842759026184812  0.6941318188765739
  0.7587309041762451  0.3219795722295483  0.8473291097367113
  0.8064506464645583  0.9330327516362150  0.3159530802387315
  0.3548969503724433  0.8610515540850402  0.6984689050198442
  0.8455771504299625  0.3438206912332764  0.2694274443420036
  0.2257235426391797  0.7322723962455381  0.3152279668996513
 
  0.00000000E+00  0.00000000E+00  0.00000000E+00
  0.00000000E+00  0.00000000E+00  0.00000000E+00
  0.00000000E+00  0.00000000E+00  0.00000000E+00
  0.00000000E+00  0.00000000E+00  0.00000000E+00
  0.00000000E+00  0.00000000E+00  0.00000000E+00
  0.00000000E+00  0.00000000E+00  0.00000000E+00
  0.00000000E+00  0.00000000E+00  0.00000000E+00
  0.00000000E+00  0.00000000E+00  0.00000000E+00
