E = -1                                  
   1.00000000000000     
     4.4575006604157936   -0.1879784944238506    0.8001698654165181
    -0.1999659945280312    4.2547734961408032   -0.8104528754410826
     0.7229248079794642   -0.8507470855612483    5.6086923898704919
   Ga   N    O    Zn
     2     2     2     2
Direct
  0.7993980503992846  0.9727690410010780  0.8755395530041535
  0.3311785911432075  0.4747679685918187  0.8973816574902700
  0.4726690599578401  0.7811546483336369  0.6950227356903304
  0.2432018259585305  0.0163428905334744  0.7268857624125794
  0.7620317257826428  0.4526487217129444  0.9026139302458389
  0.6672292357316166  0.1014456519617875  0.2406524263908864
  0.7708050266220071  0.5852913477510264  0.3104407211319563
  0.2534864844048537  0.9155797301142231  0.3514632136339783
 
  0.00000000E+00  0.00000000E+00  0.00000000E+00
  0.00000000E+00  0.00000000E+00  0.00000000E+00
  0.00000000E+00  0.00000000E+00  0.00000000E+00
  0.00000000E+00  0.00000000E+00  0.00000000E+00
  0.00000000E+00  0.00000000E+00  0.00000000E+00
  0.00000000E+00  0.00000000E+00  0.00000000E+00
  0.00000000E+00  0.00000000E+00  0.00000000E+00
  0.00000000E+00  0.00000000E+00  0.00000000E+00
