E = -1
1
1.807000 -0.004500 0.692900
0.035200 3.921600 -1.005600
-0.021700 -1.055900 11.009900
Ga N O Zn
2 2 2 2
Direct
0.600000 0.300000 0.500000
0.600000 0.600000 0.200000
0.000000 0.300000 0.900000
0.100000 0.100000 0.200000
0.300000 0.800000 0.500000
0.400000 0.300000 0.700000
0.600000 0.800000 0.700000
0.500000 0.800000 0.900000