E = -1
1
2.175000 -0.038600 -0.163200
-0.022200 4.317200 -1.047000
-0.189300 -0.959100 10.249100
Ga N O Zn
2 2 2 2
Direct
0.800000 0.000000 0.500000
0.900000 0.400000 0.200000
0.800000 0.900000 0.200000
0.900000 0.400000 0.400000
0.000000 0.500000 0.900000
0.500000 0.100000 0.700000
0.800000 0.000000 0.900000
0.100000 0.600000 0.700000