ISTART=0 
ICHARG=2
ISMEAR=0
EDIFF=1E-3
EDIFFG=-0.3
NSW=30
NCORE=12
IBRION=2
ISIF=3
SYMPREC=1E-04
LREAL=.FALSE.