ISTART=0 
ICHARG=2
ISMEAR=0
EDIFF=1E-4
EDIFFG=-0.1
NSW=30
NCORE=12
IBRION=2
ISIF=3
KGAMMA = .FALSE.
KSPACING = 0.5
LREAL=.FALSE.