ISYM=0
ISTART=0 
ICHARG=2
ENCUT=520
ISMEAR=0
EDIFF=1E-6
EDIFFG=-0.01
NSW=15
NPAR=4
IBRION=2
ISIF=3
SYMPREC=1E-04
#PSTRESS=500