Kpoints from vasprun.xml
0
Monkhorst-Pack
6 6 6
0 0 0